# Created by lammps_init.py on 2025-08-14 17:59:02 - git checkout 5f482072dacedbcbccd569a5fdb6523a88f8b71d

8000 atoms
0 bonds
0 angles

3 atom types
0 bond types
0 angle types

0 22.081851278792275 xlo xhi
0 13.4 ylo yhi
0 13.4 zlo zhi

Masses

1 1.0
2 1.0
3 1.0


Atoms

1 3 0.0 11.825 6.7 1 1 1
2 3 0.32473310704106284 11.737737135879996 7.641716278809923 1 1 2
3 3 0.6494662140821257 11.825 6.7 1 1 3
4 3 0.9741993211231885 11.737737135879996 7.641716278809923 1 1 4
5 3 1.2989324281642514 11.825 6.7 1 1 5
6 3 1.6236655352053142 11.737737135879996 7.641716278809923 1 1 6
7 3 1.948398642246377 11.825 6.7 1 1 7
8 3 2.27313174928744 11.737737135879996 7.641716278809923 1 1 8
9 3 2.5978648563285027 11.825 6.7 1 1 9
10 3 2.9225979633695656 11.737737135879996 7.641716278809923 1 1 10
11 3 3.2473310704106284 11.825 6.7 1 1 11
12 3 3.5720641774516912 11.737737135879996 7.641716278809923 1 1 12
13 3 3.896797284492754 11.825 6.7 1 1 13
14 3 4.2215303915338165 11.737737135879996 7.641716278809923 1 1 14
15 3 4.54626349857488 11.825 6.7 1 1 15
16 3 4.870996605615943 11.737737135879996 7.641716278809923 1 1 16
17 3 5.1957297126570055 11.825 6.7 1 1 17
18 3 5.520462819698068 11.737737135879996 7.641716278809923 1 1 18
19 3 5.845195926739131 11.825 6.7 1 1 19
20 3 6.169929033780194 11.737737135879996 7.641716278809923 1 1 20
21 3 6.494662140821257 11.825 6.7 1 1 21
22 3 6.819395247862319 11.737737135879996 7.641716278809923 1 1 22
23 3 7.1441283549033825 11.825 6.7 1 1 23
24 3 7.468861461944446 11.737737135879996 7.641716278809923 1 1 24
25 3 7.793594568985508 11.825 6.7 1 1 25
26 3 8.11832767602657 11.737737135879996 7.641716278809923 1 1 26
27 3 8.443060783067633 11.825 6.7 1 1 27
28 3 8.767793890108697 11.737737135879996 7.641716278809923 1 1 28
29 3 9.09252699714976 11.825 6.7 1 1 29
30 3 9.417260104190822 11.737737135879996 7.641716278809923 1 1 30
31 3 9.741993211231886 11.825 6.7 1 1 31
32 3 10.066726318272949 11.737737135879996 7.641716278809923 1 1 32
33 3 10.391459425314011 11.825 6.7 1 1 33
34 3 10.716192532355073 11.737737135879996 7.641716278809923 1 1 34
35 3 11.040925639396136 11.825 6.7 1 1 35
36 3 11.3656587464372 11.737737135879996 7.641716278809923 1 1 36
37 3 11.690391853478262 11.825 6.7 1 1 37
38 3 12.015124960519325 11.737737135879996 7.641716278809923 1 1 38
39 3 12.339858067560389 11.825 6.7 1 1 39
40 3 12.664591174601451 11.737737135879996 7.641716278809923 1 1 40
41 3 12.989324281642514 11.825 6.7 1 1 41
42 3 13.314057388683576 11.737737135879996 7.641716278809923 1 1 42
43 3 13.638790495724638 11.825 6.7 1 1 43
44 3 13.963523602765703 11.737737135879996 7.641716278809923 1 1 44
45 3 14.288256709806765 11.825 6.7 1 1 45
46 3 14.612989816847827 11.737737135879996 7.641716278809923 1 1 46
47 3 14.937722923888892 11.825 6.7 1 1 47
48 3 15.262456030929954 11.737737135879996 7.641716278809923 1 1 48
49 3 15.587189137971016 11.825 6.7 1 1 49
50 3 15.911922245012079 11.737737135879996 7.641716278809923 1 1 50
51 3 16.23665535205314 11.825 6.7 1 1 51
52 3 16.561388459094204 11.737737135879996 7.641716278809923 1 1 52
53 3 16.886121566135266 11.825 6.7 1 1 53
54 3 17.210854673176332 11.737737135879996 7.641716278809923 1 1 54
55 3 17.535587780217394 11.825 6.7 1 1 55
56 3 17.860320887258457 11.737737135879996 7.641716278809923 1 1 56
57 3 18.18505399429952 11.825 6.7 1 1 57
58 3 18.50978710134058 11.737737135879996 7.641716278809923 1 1 58
59 3 18.834520208381644 11.825 6.7 1 1 59
60 3 19.159253315422706 11.737737135879996 7.641716278809923 1 1 60
61 3 19.483986422463772 11.825 6.7 1 1 61
62 3 19.808719529504835 11.737737135879996 7.641716278809923 1 1 62
63 3 20.133452636545897 11.825 6.7 1 1 63
64 3 20.45818574358696 11.737737135879996 7.641716278809923 1 1 64
65 3 20.782918850628022 11.825 6.7 1 1 65
66 3 21.107651957669084 11.737737135879996 7.641716278809923 1 1 66
67 3 21.432385064710147 11.825 6.7 1 1 67
68 3 21.75711817175121 11.737737135879996 7.641716278809923 1 1 68
69 3 0.0 11.478920175697324 8.55136353920916 1 1 69
70 3 0.32473310704106284 11.057362820614273 9.397964834746448 1 1 70
71 3 0.6494662140821257 11.478920175697324 8.55136353920916 1 1 71
72 3 0.9741993211231885 11.057362820614273 9.397964834746448 1 1 72
73 3 1.2989324281642514 11.478920175697324 8.55136353920916 1 1 73
74 3 1.6236655352053142 11.057362820614273 9.397964834746448 1 1 74
75 3 1.948398642246377 11.478920175697324 8.55136353920916 1 1 75
76 3 2.27313174928744 11.057362820614273 9.397964834746448 1 1 76
77 3 2.5978648563285027 11.478920175697324 8.55136353920916 1 1 77
78 3 2.9225979633695656 11.057362820614273 9.397964834746448 1 1 78
79 3 3.2473310704106284 11.478920175697324 8.55136353920916 1 1 79
80 3 3.5720641774516912 11.057362820614273 9.397964834746448 1 1 80
81 3 3.896797284492754 11.478920175697324 8.55136353920916 1 1 81
82 3 4.2215303915338165 11.057362820614273 9.397964834746448 1 1 82
83 3 4.54626349857488 11.478920175697324 8.55136353920916 1 1 83
84 3 4.870996605615943 11.057362820614273 9.397964834746448 1 1 84
85 3 5.1957297126570055 11.478920175697324 8.55136353920916 1 1 85
86 3 5.520462819698068 11.057362820614273 9.397964834746448 1 1 86
87 3 5.845195926739131 11.478920175697324 8.55136353920916 1 1 87
88 3 6.169929033780194 11.057362820614273 9.397964834746448 1 1 88
89 3 6.494662140821257 11.478920175697324 8.55136353920916 1 1 89
90 3 6.819395247862319 11.057362820614273 9.397964834746448 1 1 90
91 3 7.1441283549033825 11.478920175697324 8.55136353920916 1 1 91
92 3 7.468861461944446 11.057362820614273 9.397964834746448 1 1 92
93 3 7.793594568985508 11.478920175697324 8.55136353920916 1 1 93
94 3 8.11832767602657 11.057362820614273 9.397964834746448 1 1 94
95 3 8.443060783067633 11.478920175697324 8.55136353920916 1 1 95
96 3 8.767793890108697 11.057362820614273 9.397964834746448 1 1 96
97 3 9.09252699714976 11.478920175697324 8.55136353920916 1 1 97
98 3 9.417260104190822 11.057362820614273 9.397964834746448 1 1 98
99 3 9.741993211231886 11.478920175697324 8.55136353920916 1 1 99
100 3 10.066726318272949 11.057362820614273 9.397964834746448 1 1 100
101 3 10.391459425314011 11.478920175697324 8.55136353920916 1 1 101
102 3 10.716192532355073 11.057362820614273 9.397964834746448 1 1 102
103 3 11.040925639396136 11.478920175697324 8.55136353920916 1 1 103
104 3 11.3656587464372 11.057362820614273 9.397964834746448 1 1 104
105 3 11.690391853478262 11.478920175697324 8.55136353920916 1 1 105
106 3 12.015124960519325 11.057362820614273 9.397964834746448 1 1 106
107 3 12.339858067560389 11.478920175697324 8.55136353920916 1 1 107
108 3 12.664591174601451 11.057362820614273 9.397964834746448 1 1 108
109 3 12.989324281642514 11.478920175697324 8.55136353920916 1 1 109
110 3 13.314057388683576 11.057362820614273 9.397964834746448 1 1 110
111 3 13.638790495724638 11.478920175697324 8.55136353920916 1 1 111
112 3 13.963523602765703 11.057362820614273 9.397964834746448 1 1 112
113 3 14.288256709806765 11.478920175697324 8.55136353920916 1 1 113
114 3 14.612989816847827 11.057362820614273 9.397964834746448 1 1 114
115 3 14.937722923888892 11.478920175697324 8.55136353920916 1 1 115
116 3 15.262456030929954 11.057362820614273 9.397964834746448 1 1 116
117 3 15.587189137971016 11.478920175697324 8.55136353920916 1 1 117
118 3 15.911922245012079 11.057362820614273 9.397964834746448 1 1 118
119 3 16.23665535205314 11.478920175697324 8.55136353920916 1 1 119
120 3 16.561388459094204 11.057362820614273 9.397964834746448 1 1 120
121 3 16.886121566135266 11.478920175697324 8.55136353920916 1 1 121
122 3 17.210854673176332 11.057362820614273 9.397964834746448 1 1 122
123 3 17.535587780217394 11.478920175697324 8.55136353920916 1 1 123
124 3 17.860320887258457 11.057362820614273 9.397964834746448 1 1 124
125 3 18.18505399429952 11.478920175697324 8.55136353920916 1 1 125
126 3 18.50978710134058 11.057362820614273 9.397964834746448 1 1 126
127 3 18.834520208381644 11.478920175697324 8.55136353920916 1 1 127
128 3 19.159253315422706 11.057362820614273 9.397964834746448 1 1 128
129 3 19.483986422463772 11.478920175697324 8.55136353920916 1 1 129
130 3 19.808719529504835 11.057362820614273 9.397964834746448 1 1 130
131 3 20.133452636545897 11.478920175697324 8.55136353920916 1 1 131
132 3 20.45818574358696 11.057362820614273 9.397964834746448 1 1 132
133 3 20.782918850628022 11.478920175697324 8.55136353920916 1 1 133
134 3 21.107651957669084 11.057362820614273 9.397964834746448 1 1 134
135 3 21.432385064710147 11.478920175697324 8.55136353920916 1 1 135
136 3 21.75711817175121 11.057362820614273 9.397964834746448 1 1 136
137 3 0.0 10.487420700755878 10.152690173688606 1 1 137
138 3 0.32473310704106284 9.788502511443689 10.789838289811229 1 1 138
139 3 0.6494662140821257 10.487420700755878 10.152690173688606 1 1 139
140 3 0.9741993211231885 9.788502511443689 10.789838289811229 1 1 140
141 3 1.2989324281642514 10.487420700755878 10.152690173688606 1 1 141
142 3 1.6236655352053142 9.788502511443689 10.789838289811229 1 1 142
143 3 1.948398642246377 10.487420700755878 10.152690173688606 1 1 143
144 3 2.27313174928744 9.788502511443689 10.789838289811229 1 1 144
145 3 2.5978648563285027 10.487420700755878 10.152690173688606 1 1 145
146 3 2.9225979633695656 9.788502511443689 10.789838289811229 1 1 146
147 3 3.2473310704106284 10.487420700755878 10.152690173688606 1 1 147
148 3 3.5720641774516912 9.788502511443689 10.789838289811229 1 1 148
149 3 3.896797284492754 10.487420700755878 10.152690173688606 1 1 149
150 3 4.2215303915338165 9.788502511443689 10.789838289811229 1 1 150
151 3 4.54626349857488 10.487420700755878 10.152690173688606 1 1 151
152 3 4.870996605615943 9.788502511443689 10.789838289811229 1 1 152
153 3 5.1957297126570055 10.487420700755878 10.152690173688606 1 1 153
154 3 5.520462819698068 9.788502511443689 10.789838289811229 1 1 154
155 3 5.845195926739131 10.487420700755878 10.152690173688606 1 1 155
156 3 6.169929033780194 9.788502511443689 10.789838289811229 1 1 156
157 3 6.494662140821257 10.487420700755878 10.152690173688606 1 1 157
158 3 6.819395247862319 9.788502511443689 10.789838289811229 1 1 158
159 3 7.1441283549033825 10.487420700755878 10.152690173688606 1 1 159
160 3 7.468861461944446 9.788502511443689 10.789838289811229 1 1 160
161 3 7.793594568985508 10.487420700755878 10.152690173688606 1 1 161
162 3 8.11832767602657 9.788502511443689 10.789838289811229 1 1 162
163 3 8.443060783067633 10.487420700755878 10.152690173688606 1 1 163
164 3 8.767793890108697 9.788502511443689 10.789838289811229 1 1 164
165 3 9.09252699714976 10.487420700755878 10.152690173688606 1 1 165
166 3 9.417260104190822 9.788502511443689 10.789838289811229 1 1 166
167 3 9.741993211231886 10.487420700755878 10.152690173688606 1 1 167
168 3 10.066726318272949 9.788502511443689 10.789838289811229 1 1 168
169 3 10.391459425314011 10.487420700755878 10.152690173688606 1 1 169
170 3 10.716192532355073 9.788502511443689 10.789838289811229 1 1 170
171 3 11.040925639396136 10.487420700755878 10.152690173688606 1 1 171
172 3 11.3656587464372 9.788502511443689 10.789838289811229 1 1 172
173 3 11.690391853478262 10.487420700755878 10.152690173688606 1 1 173
174 3 12.015124960519325 9.788502511443689 10.789838289811229 1 1 174
175 3 12.339858067560389 10.487420700755878 10.152690173688606 1 1 175
176 3 12.664591174601451 9.788502511443689 10.789838289811229 1 1 176
177 3 12.989324281642514 10.487420700755878 10.152690173688606 1 1 177
178 3 13.314057388683576 9.788502511443689 10.789838289811229 1 1 178
179 3 13.638790495724638 10.487420700755878 10.152690173688606 1 1 179
180 3 13.963523602765703 9.788502511443689 10.789838289811229 1 1 180
181 3 14.288256709806765 10.487420700755878 10.152690173688606 1 1 181
182 3 14.612989816847827 9.788502511443689 10.789838289811229 1 1 182
183 3 14.937722923888892 10.487420700755878 10.152690173688606 1 1 183
184 3 15.262456030929954 9.788502511443689 10.789838289811229 1 1 184
185 3 15.587189137971016 10.487420700755878 10.152690173688606 1 1 185
186 3 15.911922245012079 9.788502511443689 10.789838289811229 1 1 186
187 3 16.23665535205314 10.487420700755878 10.152690173688606 1 1 187
188 3 16.561388459094204 9.788502511443689 10.789838289811229 1 1 188
189 3 16.886121566135266 10.487420700755878 10.152690173688606 1 1 189
190 3 17.210854673176332 9.788502511443689 10.789838289811229 1 1 190
191 3 17.535587780217394 10.487420700755878 10.152690173688606 1 1 191
192 3 17.860320887258457 9.788502511443689 10.789838289811229 1 1 192
193 3 18.18505399429952 10.487420700755878 10.152690173688606 1 1 193
194 3 18.50978710134058 9.788502511443689 10.789838289811229 1 1 194
195 3 18.834520208381644 10.487420700755878 10.152690173688606 1 1 195
196 3 19.159253315422706 9.788502511443689 10.789838289811229 1 1 196
197 3 19.483986422463772 10.487420700755878 10.152690173688606 1 1 197
198 3 19.808719529504835 9.788502511443689 10.789838289811229 1 1 198
199 3 20.133452636545897 10.487420700755878 10.152690173688606 1 1 199
200 3 20.45818574358696 9.788502511443689 10.789838289811229 1 1 200
201 3 20.782918850628022 10.487420700755878 10.152690173688606 1 1 201
202 3 21.107651957669084 9.788502511443689 10.789838289811229 1 1 202
203 3 21.432385064710147 10.487420700755878 10.152690173688606 1 1 203
204 3 21.75711817175121 9.788502511443689 10.789838289811229 1 1 204
205 3 0.0 8.984409073354758 11.287711868194695 1 1 205
206 3 0.32473310704106284 8.102522824119424 11.629356421260699 1 1 206
207 3 0.6494662140821257 8.984409073354758 11.287711868194695 1 1 207
208 3 0.9741993211231885 8.102522824119424 11.629356421260699 1 1 208
209 3 1.2989324281642514 8.984409073354758 11.287711868194695 1 1 209
210 3 1.6236655352053142 8.102522824119424 11.629356421260699 1 1 210
211 3 1.948398642246377 8.984409073354758 11.287711868194695 1 1 211
212 3 2.27313174928744 8.102522824119424 11.629356421260699 1 1 212
213 3 2.5978648563285027 8.984409073354758 11.287711868194695 1 1 213
214 3 2.9225979633695656 8.102522824119424 11.629356421260699 1 1 214
215 3 3.2473310704106284 8.984409073354758 11.287711868194695 1 1 215
216 3 3.5720641774516912 8.102522824119424 11.629356421260699 1 1 216
217 3 3.896797284492754 8.984409073354758 11.287711868194695 1 1 217
218 3 4.2215303915338165 8.102522824119424 11.629356421260699 1 1 218
219 3 4.54626349857488 8.984409073354758 11.287711868194695 1 1 219
220 3 4.870996605615943 8.102522824119424 11.629356421260699 1 1 220
221 3 5.1957297126570055 8.984409073354758 11.287711868194695 1 1 221
222 3 5.520462819698068 8.102522824119424 11.629356421260699 1 1 222
223 3 5.845195926739131 8.984409073354758 11.287711868194695 1 1 223
224 3 6.169929033780194 8.102522824119424 11.629356421260699 1 1 224
225 3 6.494662140821257 8.984409073354758 11.287711868194695 1 1 225
226 3 6.819395247862319 8.102522824119424 11.629356421260699 1 1 226
227 3 7.1441283549033825 8.984409073354758 11.287711868194695 1 1 227
228 3 7.468861461944446 8.102522824119424 11.629356421260699 1 1 228
229 3 7.793594568985508 8.984409073354758 11.287711868194695 1 1 229
230 3 8.11832767602657 8.102522824119424 11.629356421260699 1 1 230
231 3 8.443060783067633 8.984409073354758 11.287711868194695 1 1 231
232 3 8.767793890108697 8.102522824119424 11.629356421260699 1 1 232
233 3 9.09252699714976 8.984409073354758 11.287711868194695 1 1 233
234 3 9.417260104190822 8.102522824119424 11.629356421260699 1 1 234
235 3 9.741993211231886 8.984409073354758 11.287711868194695 1 1 235
236 3 10.066726318272949 8.102522824119424 11.629356421260699 1 1 236
237 3 10.391459425314011 8.984409073354758 11.287711868194695 1 1 237
238 3 10.716192532355073 8.102522824119424 11.629356421260699 1 1 238
239 3 11.040925639396136 8.984409073354758 11.287711868194695 1 1 239
240 3 11.3656587464372 8.102522824119424 11.629356421260699 1 1 240
241 3 11.690391853478262 8.984409073354758 11.287711868194695 1 1 241
242 3 12.015124960519325 8.102522824119424 11.629356421260699 1 1 242
243 3 12.339858067560389 8.984409073354758 11.287711868194695 1 1 243
244 3 12.664591174601451 8.102522824119424 11.629356421260699 1 1 244
245 3 12.989324281642514 8.984409073354758 11.287711868194695 1 1 245
246 3 13.314057388683576 8.102522824119424 11.629356421260699 1 1 246
247 3 13.638790495724638 8.984409073354758 11.287711868194695 1 1 247
248 3 13.963523602765703 8.102522824119424 11.629356421260699 1 1 248
249 3 14.288256709806765 8.984409073354758 11.287711868194695 1 1 249
250 3 14.612989816847827 8.102522824119424 11.629356421260699 1 1 250
251 3 14.937722923888892 8.984409073354758 11.287711868194695 1 1 251
252 3 15.262456030929954 8.102522824119424 11.629356421260699 1 1 252
253 3 15.587189137971016 8.984409073354758 11.287711868194695 1 1 253
254 3 15.911922245012079 8.102522824119424 11.629356421260699 1 1 254
255 3 16.23665535205314 8.984409073354758 11.287711868194695 1 1 255
256 3 16.561388459094204 8.102522824119424 11.629356421260699 1 1 256
257 3 16.886121566135266 8.984409073354758 11.287711868194695 1 1 257
258 3 17.210854673176332 8.102522824119424 11.629356421260699 1 1 258
259 3 17.535587780217394 8.984409073354758 11.287711868194695 1 1 259
260 3 17.860320887258457 8.102522824119424 11.629356421260699 1 1 260
261 3 18.18505399429952 8.984409073354758 11.287711868194695 1 1 261
262 3 18.50978710134058 8.102522824119424 11.629356421260699 1 1 262
263 3 18.834520208381644 8.984409073354758 11.287711868194695 1 1 263
264 3 19.159253315422706 8.102522824119424 11.629356421260699 1 1 264
265 3 19.483986422463772 8.984409073354758 11.287711868194695 1 1 265
266 3 19.808719529504835 8.102522824119424 11.629356421260699 1 1 266
267 3 20.133452636545897 8.984409073354758 11.287711868194695 1 1 267
268 3 20.45818574358696 8.102522824119424 11.629356421260699 1 1 268
269 3 20.782918850628022 8.984409073354758 11.287711868194695 1 1 269
270 3 21.107651957669084 8.102522824119424 11.629356421260699 1 1 270
271 3 21.432385064710147 8.984409073354758 11.287711868194695 1 1 271
272 3 21.75711817175121 8.102522824119424 11.629356421260699 1 1 272
273 3 0.0 7.172875342249423 11.803137653512053 1 1 273
274 3 0.32473310704106284 6.227124657750578 11.803137653512053 1 1 274
275 3 0.6494662140821257 7.172875342249423 11.803137653512053 1 1 275
276 3 0.9741993211231885 6.227124657750578 11.803137653512053 1 1 276
277 3 1.2989324281642514 7.172875342249423 11.803137653512053 1 1 277
278 3 1.6236655352053142 6.227124657750578 11.803137653512053 1 1 278
279 3 1.948398642246377 7.172875342249423 11.803137653512053 1 1 279
280 3 2.27313174928744 6.227124657750578 11.803137653512053 1 1 280
281 3 2.5978648563285027 7.172875342249423 11.803137653512053 1 1 281
282 3 2.9225979633695656 6.227124657750578 11.803137653512053 1 1 282
283 3 3.2473310704106284 7.172875342249423 11.803137653512053 1 1 283
284 3 3.5720641774516912 6.227124657750578 11.803137653512053 1 1 284
285 3 3.896797284492754 7.172875342249423 11.803137653512053 1 1 285
286 3 4.2215303915338165 6.227124657750578 11.803137653512053 1 1 286
287 3 4.54626349857488 7.172875342249423 11.803137653512053 1 1 287
288 3 4.870996605615943 6.227124657750578 11.803137653512053 1 1 288
289 3 5.1957297126570055 7.172875342249423 11.803137653512053 1 1 289
290 3 5.520462819698068 6.227124657750578 11.803137653512053 1 1 290
291 3 5.845195926739131 7.172875342249423 11.803137653512053 1 1 291
292 3 6.169929033780194 6.227124657750578 11.803137653512053 1 1 292
293 3 6.494662140821257 7.172875342249423 11.803137653512053 1 1 293
294 3 6.819395247862319 6.227124657750578 11.803137653512053 1 1 294
295 3 7.1441283549033825 7.172875342249423 11.803137653512053 1 1 295
296 3 7.468861461944446 6.227124657750578 11.803137653512053 1 1 296
297 3 7.793594568985508 7.172875342249423 11.803137653512053 1 1 297
298 3 8.11832767602657 6.227124657750578 11.803137653512053 1 1 298
299 3 8.443060783067633 7.172875342249423 11.803137653512053 1 1 299
300 3 8.767793890108697 6.227124657750578 11.803137653512053 1 1 300
301 3 9.09252699714976 7.172875342249423 11.803137653512053 1 1 301
302 3 9.417260104190822 6.227124657750578 11.803137653512053 1 1 302
303 3 9.741993211231886 7.172875342249423 11.803137653512053 1 1 303
304 3 10.066726318272949 6.227124657750578 11.803137653512053 1 1 304
305 3 10.391459425314011 7.172875342249423 11.803137653512053 1 1 305
306 3 10.716192532355073 6.227124657750578 11.803137653512053 1 1 306
307 3 11.040925639396136 7.172875342249423 11.803137653512053 1 1 307
308 3 11.3656587464372 6.227124657750578 11.803137653512053 1 1 308
309 3 11.690391853478262 7.172875342249423 11.803137653512053 1 1 309
310 3 12.015124960519325 6.227124657750578 11.803137653512053 1 1 310
311 3 12.339858067560389 7.172875342249423 11.803137653512053 1 1 311
312 3 12.664591174601451 6.227124657750578 11.803137653512053 1 1 312
313 3 12.989324281642514 7.172875342249423 11.803137653512053 1 1 313
314 3 13.314057388683576 6.227124657750578 11.803137653512053 1 1 314
315 3 13.638790495724638 7.172875342249423 11.803137653512053 1 1 315
316 3 13.963523602765703 6.227124657750578 11.803137653512053 1 1 316
317 3 14.288256709806765 7.172875342249423 11.803137653512053 1 1 317
318 3 14.612989816847827 6.227124657750578 11.803137653512053 1 1 318
319 3 14.937722923888892 7.172875342249423 11.803137653512053 1 1 319
320 3 15.262456030929954 6.227124657750578 11.803137653512053 1 1 320
321 3 15.587189137971016 7.172875342249423 11.803137653512053 1 1 321
322 3 15.911922245012079 6.227124657750578 11.803137653512053 1 1 322
323 3 16.23665535205314 7.172875342249423 11.803137653512053 1 1 323
324 3 16.561388459094204 6.227124657750578 11.803137653512053 1 1 324
325 3 16.886121566135266 7.172875342249423 11.803137653512053 1 1 325
326 3 17.210854673176332 6.227124657750578 11.803137653512053 1 1 326
327 3 17.535587780217394 7.172875342249423 11.803137653512053 1 1 327
328 3 17.860320887258457 6.227124657750578 11.803137653512053 1 1 328
329 3 18.18505399429952 7.172875342249423 11.803137653512053 1 1 329
330 3 18.50978710134058 6.227124657750578 11.803137653512053 1 1 330
331 3 18.834520208381644 7.172875342249423 11.803137653512053 1 1 331
332 3 19.159253315422706 6.227124657750578 11.803137653512053 1 1 332
333 3 19.483986422463772 7.172875342249423 11.803137653512053 1 1 333
334 3 19.808719529504835 6.227124657750578 11.803137653512053 1 1 334
335 3 20.133452636545897 7.172875342249423 11.803137653512053 1 1 335
336 3 20.45818574358696 6.227124657750578 11.803137653512053 1 1 336
337 3 20.782918850628022 7.172875342249423 11.803137653512053 1 1 337
338 3 21.107651957669084 6.227124657750578 11.803137653512053 1 1 338
339 3 21.432385064710147 7.172875342249423 11.803137653512053 1 1 339
340 3 21.75711817175121 6.227124657750578 11.803137653512053 1 1 340
341 3 0.0 5.297477175880576 11.629356421260699 1 1 341
342 3 0.32473310704106284 4.415590926645242 11.287711868194695 1 1 342
343 3 0.6494662140821257 5.297477175880576 11.629356421260699 1 1 343
344 3 0.9741993211231885 4.415590926645242 11.287711868194695 1 1 344
345 3 1.2989324281642514 5.297477175880576 11.629356421260699 1 1 345
346 3 1.6236655352053142 4.415590926645242 11.287711868194695 1 1 346
347 3 1.948398642246377 5.297477175880576 11.629356421260699 1 1 347
348 3 2.27313174928744 4.415590926645242 11.287711868194695 1 1 348
349 3 2.5978648563285027 5.297477175880576 11.629356421260699 1 1 349
350 3 2.9225979633695656 4.415590926645242 11.287711868194695 1 1 350
351 3 3.2473310704106284 5.297477175880576 11.629356421260699 1 1 351
352 3 3.5720641774516912 4.415590926645242 11.287711868194695 1 1 352
353 3 3.896797284492754 5.297477175880576 11.629356421260699 1 1 353
354 3 4.2215303915338165 4.415590926645242 11.287711868194695 1 1 354
355 3 4.54626349857488 5.297477175880576 11.629356421260699 1 1 355
356 3 4.870996605615943 4.415590926645242 11.287711868194695 1 1 356
357 3 5.1957297126570055 5.297477175880576 11.629356421260699 1 1 357
358 3 5.520462819698068 4.415590926645242 11.287711868194695 1 1 358
359 3 5.845195926739131 5.297477175880576 11.629356421260699 1 1 359
360 3 6.169929033780194 4.415590926645242 11.287711868194695 1 1 360
361 3 6.494662140821257 5.297477175880576 11.629356421260699 1 1 361
362 3 6.819395247862319 4.415590926645242 11.287711868194695 1 1 362
363 3 7.1441283549033825 5.297477175880576 11.629356421260699 1 1 363
364 3 7.468861461944446 4.415590926645242 11.287711868194695 1 1 364
365 3 7.793594568985508 5.297477175880576 11.629356421260699 1 1 365
366 3 8.11832767602657 4.415590926645242 11.287711868194695 1 1 366
367 3 8.443060783067633 5.297477175880576 11.629356421260699 1 1 367
368 3 8.767793890108697 4.415590926645242 11.287711868194695 1 1 368
369 3 9.09252699714976 5.297477175880576 11.629356421260699 1 1 369
370 3 9.417260104190822 4.415590926645242 11.287711868194695 1 1 370
371 3 9.741993211231886 5.297477175880576 11.629356421260699 1 1 371
372 3 10.066726318272949 4.415590926645242 11.287711868194695 1 1 372
373 3 10.391459425314011 5.297477175880576 11.629356421260699 1 1 373
374 3 10.716192532355073 4.415590926645242 11.287711868194695 1 1 374
375 3 11.040925639396136 5.297477175880576 11.629356421260699 1 1 375
376 3 11.3656587464372 4.415590926645242 11.287711868194695 1 1 376
377 3 11.690391853478262 5.297477175880576 11.629356421260699 1 1 377
378 3 12.015124960519325 4.415590926645242 11.287711868194695 1 1 378
379 3 12.339858067560389 5.297477175880576 11.629356421260699 1 1 379
380 3 12.664591174601451 4.415590926645242 11.287711868194695 1 1 380
381 3 12.989324281642514 5.297477175880576 11.629356421260699 1 1 381
382 3 13.314057388683576 4.415590926645242 11.287711868194695 1 1 382
383 3 13.638790495724638 5.297477175880576 11.629356421260699 1 1 383
384 3 13.963523602765703 4.415590926645242 11.287711868194695 1 1 384
385 3 14.288256709806765 5.297477175880576 11.629356421260699 1 1 385
386 3 14.612989816847827 4.415590926645242 11.287711868194695 1 1 386
387 3 14.937722923888892 5.297477175880576 11.629356421260699 1 1 387
388 3 15.262456030929954 4.415590926645242 11.287711868194695 1 1 388
389 3 15.587189137971016 5.297477175880576 11.629356421260699 1 1 389
390 3 15.911922245012079 4.415590926645242 11.287711868194695 1 1 390
391 3 16.23665535205314 5.297477175880576 11.629356421260699 1 1 391
392 3 16.561388459094204 4.415590926645242 11.287711868194695 1 1 392
393 3 16.886121566135266 5.297477175880576 11.629356421260699 1 1 393
394 3 17.210854673176332 4.415590926645242 11.287711868194695 1 1 394
395 3 17.535587780217394 5.297477175880576 11.629356421260699 1 1 395
396 3 17.860320887258457 4.415590926645242 11.287711868194695 1 1 396
397 3 18.18505399429952 5.297477175880576 11.629356421260699 1 1 397
398 3 18.50978710134058 4.415590926645242 11.287711868194695 1 1 398
399 3 18.834520208381644 5.297477175880576 11.629356421260699 1 1 399
400 3 19.159253315422706 4.415590926645242 11.287711868194695 1 1 400
401 3 19.483986422463772 5.297477175880576 11.629356421260699 1 1 401
402 3 19.808719529504835 4.415590926645242 11.287711868194695 1 1 402
403 3 20.133452636545897 5.297477175880576 11.629356421260699 1 1 403
404 3 20.45818574358696 4.415590926645242 11.287711868194695 1 1 404
405 3 20.782918850628022 5.297477175880576 11.629356421260699 1 1 405
406 3 21.107651957669084 4.415590926645242 11.287711868194695 1 1 406
407 3 21.432385064710147 5.297477175880576 11.629356421260699 1 1 407
408 3 21.75711817175121 4.415590926645242 11.287711868194695 1 1 408
409 3 0.0 3.611497488556312 10.789838289811229 1 1 409
410 3 0.32473310704106284 2.912579299244123 10.152690173688606 1 1 410
411 3 0.6494662140821257 3.611497488556312 10.789838289811229 1 1 411
412 3 0.9741993211231885 2.912579299244123 10.152690173688606 1 1 412
413 3 1.2989324281642514 3.611497488556312 10.789838289811229 1 1 413
414 3 1.6236655352053142 2.912579299244123 10.152690173688606 1 1 414
415 3 1.948398642246377 3.611497488556312 10.789838289811229 1 1 415
416 3 2.27313174928744 2.912579299244123 10.152690173688606 1 1 416
417 3 2.5978648563285027 3.611497488556312 10.789838289811229 1 1 417
418 3 2.9225979633695656 2.912579299244123 10.152690173688606 1 1 418
419 3 3.2473310704106284 3.611497488556312 10.789838289811229 1 1 419
420 3 3.5720641774516912 2.912579299244123 10.152690173688606 1 1 420
421 3 3.896797284492754 3.611497488556312 10.789838289811229 1 1 421
422 3 4.2215303915338165 2.912579299244123 10.152690173688606 1 1 422
423 3 4.54626349857488 3.611497488556312 10.789838289811229 1 1 423
424 3 4.870996605615943 2.912579299244123 10.152690173688606 1 1 424
425 3 5.1957297126570055 3.611497488556312 10.789838289811229 1 1 425
426 3 5.520462819698068 2.912579299244123 10.152690173688606 1 1 426
427 3 5.845195926739131 3.611497488556312 10.789838289811229 1 1 427
428 3 6.169929033780194 2.912579299244123 10.152690173688606 1 1 428
429 3 6.494662140821257 3.611497488556312 10.789838289811229 1 1 429
430 3 6.819395247862319 2.912579299244123 10.152690173688606 1 1 430
431 3 7.1441283549033825 3.611497488556312 10.789838289811229 1 1 431
432 3 7.468861461944446 2.912579299244123 10.152690173688606 1 1 432
433 3 7.793594568985508 3.611497488556312 10.789838289811229 1 1 433
434 3 8.11832767602657 2.912579299244123 10.152690173688606 1 1 434
435 3 8.443060783067633 3.611497488556312 10.789838289811229 1 1 435
436 3 8.767793890108697 2.912579299244123 10.152690173688606 1 1 436
437 3 9.09252699714976 3.611497488556312 10.789838289811229 1 1 437
438 3 9.417260104190822 2.912579299244123 10.152690173688606 1 1 438
439 3 9.741993211231886 3.611497488556312 10.789838289811229 1 1 439
440 3 10.066726318272949 2.912579299244123 10.152690173688606 1 1 440
441 3 10.391459425314011 3.611497488556312 10.789838289811229 1 1 441
442 3 10.716192532355073 2.912579299244123 10.152690173688606 1 1 442
443 3 11.040925639396136 3.611497488556312 10.789838289811229 1 1 443
444 3 11.3656587464372 2.912579299244123 10.152690173688606 1 1 444
445 3 11.690391853478262 3.611497488556312 10.789838289811229 1 1 445
446 3 12.015124960519325 2.912579299244123 10.152690173688606 1 1 446
447 3 12.339858067560389 3.611497488556312 10.789838289811229 1 1 447
448 3 12.664591174601451 2.912579299244123 10.152690173688606 1 1 448
449 3 12.989324281642514 3.611497488556312 10.789838289811229 1 1 449
450 3 13.314057388683576 2.912579299244123 10.152690173688606 1 1 450
451 3 13.638790495724638 3.611497488556312 10.789838289811229 1 1 451
452 3 13.963523602765703 2.912579299244123 10.152690173688606 1 1 452
453 3 14.288256709806765 3.611497488556312 10.789838289811229 1 1 453
454 3 14.612989816847827 2.912579299244123 10.152690173688606 1 1 454
455 3 14.937722923888892 3.611497488556312 10.789838289811229 1 1 455
456 3 15.262456030929954 2.912579299244123 10.152690173688606 1 1 456
457 3 15.587189137971016 3.611497488556312 10.789838289811229 1 1 457
458 3 15.911922245012079 2.912579299244123 10.152690173688606 1 1 458
459 3 16.23665535205314 3.611497488556312 10.789838289811229 1 1 459
460 3 16.561388459094204 2.912579299244123 10.152690173688606 1 1 460
461 3 16.886121566135266 3.611497488556312 10.789838289811229 1 1 461
462 3 17.210854673176332 2.912579299244123 10.152690173688606 1 1 462
463 3 17.535587780217394 3.611497488556312 10.789838289811229 1 1 463
464 3 17.860320887258457 2.912579299244123 10.152690173688606 1 1 464
465 3 18.18505399429952 3.611497488556312 10.789838289811229 1 1 465
466 3 18.50978710134058 2.912579299244123 10.152690173688606 1 1 466
467 3 18.834520208381644 3.611497488556312 10.789838289811229 1 1 467
468 3 19.159253315422706 2.912579299244123 10.152690173688606 1 1 468
469 3 19.483986422463772 3.611497488556312 10.789838289811229 1 1 469
470 3 19.808719529504835 2.912579299244123 10.152690173688606 1 1 470
471 3 20.133452636545897 3.611497488556312 10.789838289811229 1 1 471
472 3 20.45818574358696 2.912579299244123 10.152690173688606 1 1 472
473 3 20.782918850628022 3.611497488556312 10.789838289811229 1 1 473
474 3 21.107651957669084 2.912579299244123 10.152690173688606 1 1 474
475 3 21.432385064710147 3.611497488556312 10.789838289811229 1 1 475
476 3 21.75711817175121 2.912579299244123 10.152690173688606 1 1 476
477 3 0.0 2.3426371793857275 9.397964834746448 1 1 477
478 3 0.32473310704106284 1.9210798243026765 8.55136353920916 1 1 478
479 3 0.6494662140821257 2.3426371793857275 9.397964834746448 1 1 479
480 3 0.9741993211231885 1.9210798243026765 8.55136353920916 1 1 480
481 3 1.2989324281642514 2.3426371793857275 9.397964834746448 1 1 481
482 3 1.6236655352053142 1.9210798243026765 8.55136353920916 1 1 482
483 3 1.948398642246377 2.3426371793857275 9.397964834746448 1 1 483
484 3 2.27313174928744 1.9210798243026765 8.55136353920916 1 1 484
485 3 2.5978648563285027 2.3426371793857275 9.397964834746448 1 1 485
486 3 2.9225979633695656 1.9210798243026765 8.55136353920916 1 1 486
487 3 3.2473310704106284 2.3426371793857275 9.397964834746448 1 1 487
488 3 3.5720641774516912 1.9210798243026765 8.55136353920916 1 1 488
489 3 3.896797284492754 2.3426371793857275 9.397964834746448 1 1 489
490 3 4.2215303915338165 1.9210798243026765 8.55136353920916 1 1 490
491 3 4.54626349857488 2.3426371793857275 9.397964834746448 1 1 491
492 3 4.870996605615943 1.9210798243026765 8.55136353920916 1 1 492
493 3 5.1957297126570055 2.3426371793857275 9.397964834746448 1 1 493
494 3 5.520462819698068 1.9210798243026765 8.55136353920916 1 1 494
495 3 5.845195926739131 2.3426371793857275 9.397964834746448 1 1 495
496 3 6.169929033780194 1.9210798243026765 8.55136353920916 1 1 496
497 3 6.494662140821257 2.3426371793857275 9.397964834746448 1 1 497
498 3 6.819395247862319 1.9210798243026765 8.55136353920916 1 1 498
499 3 7.1441283549033825 2.3426371793857275 9.397964834746448 1 1 499
500 3 7.468861461944446 1.9210798243026765 8.55136353920916 1 1 500
501 3 7.793594568985508 2.3426371793857275 9.397964834746448 1 1 501
502 3 8.11832767602657 1.9210798243026765 8.55136353920916 1 1 502
503 3 8.443060783067633 2.3426371793857275 9.397964834746448 1 1 503
504 3 8.767793890108697 1.9210798243026765 8.55136353920916 1 1 504
505 3 9.09252699714976 2.3426371793857275 9.397964834746448 1 1 505
506 3 9.417260104190822 1.9210798243026765 8.55136353920916 1 1 506
507 3 9.741993211231886 2.3426371793857275 9.397964834746448 1 1 507
508 3 10.066726318272949 1.9210798243026765 8.55136353920916 1 1 508
509 3 10.391459425314011 2.3426371793857275 9.397964834746448 1 1 509
510 3 10.716192532355073 1.9210798243026765 8.55136353920916 1 1 510
511 3 11.040925639396136 2.3426371793857275 9.397964834746448 1 1 511
512 3 11.3656587464372 1.9210798243026765 8.55136353920916 1 1 512
513 3 11.690391853478262 2.3426371793857275 9.397964834746448 1 1 513
514 3 12.015124960519325 1.9210798243026765 8.55136353920916 1 1 514
515 3 12.339858067560389 2.3426371793857275 9.397964834746448 1 1 515
516 3 12.664591174601451 1.9210798243026765 8.55136353920916 1 1 516
517 3 12.989324281642514 2.3426371793857275 9.397964834746448 1 1 517
518 3 13.314057388683576 1.9210798243026765 8.55136353920916 1 1 518
519 3 13.638790495724638 2.3426371793857275 9.397964834746448 1 1 519
520 3 13.963523602765703 1.9210798243026765 8.55136353920916 1 1 520
521 3 14.288256709806765 2.3426371793857275 9.397964834746448 1 1 521
522 3 14.612989816847827 1.9210798243026765 8.55136353920916 1 1 522
523 3 14.937722923888892 2.3426371793857275 9.397964834746448 1 1 523
524 3 15.262456030929954 1.9210798243026765 8.55136353920916 1 1 524
525 3 15.587189137971016 2.3426371793857275 9.397964834746448 1 1 525
526 3 15.911922245012079 1.9210798243026765 8.55136353920916 1 1 526
527 3 16.23665535205314 2.3426371793857275 9.397964834746448 1 1 527
528 3 16.561388459094204 1.9210798243026765 8.55136353920916 1 1 528
529 3 16.886121566135266 2.3426371793857275 9.397964834746448 1 1 529
530 3 17.210854673176332 1.9210798243026765 8.55136353920916 1 1 530
531 3 17.535587780217394 2.3426371793857275 9.397964834746448 1 1 531
532 3 17.860320887258457 1.9210798243026765 8.55136353920916 1 1 532
533 3 18.18505399429952 2.3426371793857275 9.397964834746448 1 1 533
534 3 18.50978710134058 1.9210798243026765 8.55136353920916 1 1 534
535 3 18.834520208381644 2.3426371793857275 9.397964834746448 1 1 535
536 3 19.159253315422706 1.9210798243026765 8.55136353920916 1 1 536
537 3 19.483986422463772 2.3426371793857275 9.397964834746448 1 1 537
538 3 19.808719529504835 1.9210798243026765 8.55136353920916 1 1 538
539 3 20.133452636545897 2.3426371793857275 9.397964834746448 1 1 539
540 3 20.45818574358696 1.9210798243026765 8.55136353920916 1 1 540
541 3 20.782918850628022 2.3426371793857275 9.397964834746448 1 1 541
542 3 21.107651957669084 1.9210798243026765 8.55136353920916 1 1 542
543 3 21.432385064710147 2.3426371793857275 9.397964834746448 1 1 543
544 3 21.75711817175121 1.9210798243026765 8.55136353920916 1 1 544
545 3 0.0 1.6622628641200032 7.641716278809923 1 1 545
546 3 0.32473310704106284 1.5750000000000002 6.700000000000001 1 1 546
547 3 0.6494662140821257 1.6622628641200032 7.641716278809923 1 1 547
548 3 0.9741993211231885 1.5750000000000002 6.700000000000001 1 1 548
549 3 1.2989324281642514 1.6622628641200032 7.641716278809923 1 1 549
550 3 1.6236655352053142 1.5750000000000002 6.700000000000001 1 1 550
551 3 1.948398642246377 1.6622628641200032 7.641716278809923 1 1 551
552 3 2.27313174928744 1.5750000000000002 6.700000000000001 1 1 552
553 3 2.5978648563285027 1.6622628641200032 7.641716278809923 1 1 553
554 3 2.9225979633695656 1.5750000000000002 6.700000000000001 1 1 554
555 3 3.2473310704106284 1.6622628641200032 7.641716278809923 1 1 555
556 3 3.5720641774516912 1.5750000000000002 6.700000000000001 1 1 556
557 3 3.896797284492754 1.6622628641200032 7.641716278809923 1 1 557
558 3 4.2215303915338165 1.5750000000000002 6.700000000000001 1 1 558
559 3 4.54626349857488 1.6622628641200032 7.641716278809923 1 1 559
560 3 4.870996605615943 1.5750000000000002 6.700000000000001 1 1 560
561 3 5.1957297126570055 1.6622628641200032 7.641716278809923 1 1 561
562 3 5.520462819698068 1.5750000000000002 6.700000000000001 1 1 562
563 3 5.845195926739131 1.6622628641200032 7.641716278809923 1 1 563
564 3 6.169929033780194 1.5750000000000002 6.700000000000001 1 1 564
565 3 6.494662140821257 1.6622628641200032 7.641716278809923 1 1 565
566 3 6.819395247862319 1.5750000000000002 6.700000000000001 1 1 566
567 3 7.1441283549033825 1.6622628641200032 7.641716278809923 1 1 567
568 3 7.468861461944446 1.5750000000000002 6.700000000000001 1 1 568
569 3 7.793594568985508 1.6622628641200032 7.641716278809923 1 1 569
570 3 8.11832767602657 1.5750000000000002 6.700000000000001 1 1 570
571 3 8.443060783067633 1.6622628641200032 7.641716278809923 1 1 571
572 3 8.767793890108697 1.5750000000000002 6.700000000000001 1 1 572
573 3 9.09252699714976 1.6622628641200032 7.641716278809923 1 1 573
574 3 9.417260104190822 1.5750000000000002 6.700000000000001 1 1 574
575 3 9.741993211231886 1.6622628641200032 7.641716278809923 1 1 575
576 3 10.066726318272949 1.5750000000000002 6.700000000000001 1 1 576
577 3 10.391459425314011 1.6622628641200032 7.641716278809923 1 1 577
578 3 10.716192532355073 1.5750000000000002 6.700000000000001 1 1 578
579 3 11.040925639396136 1.6622628641200032 7.641716278809923 1 1 579
580 3 11.3656587464372 1.5750000000000002 6.700000000000001 1 1 580
581 3 11.690391853478262 1.6622628641200032 7.641716278809923 1 1 581
582 3 12.015124960519325 1.5750000000000002 6.700000000000001 1 1 582
583 3 12.339858067560389 1.6622628641200032 7.641716278809923 1 1 583
584 3 12.664591174601451 1.5750000000000002 6.700000000000001 1 1 584
585 3 12.989324281642514 1.6622628641200032 7.641716278809923 1 1 585
586 3 13.314057388683576 1.5750000000000002 6.700000000000001 1 1 586
587 3 13.638790495724638 1.6622628641200032 7.641716278809923 1 1 587
588 3 13.963523602765703 1.5750000000000002 6.700000000000001 1 1 588
589 3 14.288256709806765 1.6622628641200032 7.641716278809923 1 1 589
590 3 14.612989816847827 1.5750000000000002 6.700000000000001 1 1 590
591 3 14.937722923888892 1.6622628641200032 7.641716278809923 1 1 591
592 3 15.262456030929954 1.5750000000000002 6.700000000000001 1 1 592
593 3 15.587189137971016 1.6622628641200032 7.641716278809923 1 1 593
594 3 15.911922245012079 1.5750000000000002 6.700000000000001 1 1 594
595 3 16.23665535205314 1.6622628641200032 7.641716278809923 1 1 595
596 3 16.561388459094204 1.5750000000000002 6.700000000000001 1 1 596
597 3 16.886121566135266 1.6622628641200032 7.641716278809923 1 1 597
598 3 17.210854673176332 1.5750000000000002 6.700000000000001 1 1 598
599 3 17.535587780217394 1.6622628641200032 7.641716278809923 1 1 599
600 3 17.860320887258457 1.5750000000000002 6.700000000000001 1 1 600
601 3 18.18505399429952 1.6622628641200032 7.641716278809923 1 1 601
602 3 18.50978710134058 1.5750000000000002 6.700000000000001 1 1 602
603 3 18.834520208381644 1.6622628641200032 7.641716278809923 1 1 603
604 3 19.159253315422706 1.5750000000000002 6.700000000000001 1 1 604
605 3 19.483986422463772 1.6622628641200032 7.641716278809923 1 1 605
606 3 19.808719529504835 1.5750000000000002 6.700000000000001 1 1 606
607 3 20.133452636545897 1.6622628641200032 7.641716278809923 1 1 607
608 3 20.45818574358696 1.5750000000000002 6.700000000000001 1 1 608
609 3 20.782918850628022 1.6622628641200032 7.641716278809923 1 1 609
610 3 21.107651957669084 1.5750000000000002 6.700000000000001 1 1 610
611 3 21.432385064710147 1.6622628641200032 7.641716278809923 1 1 611
612 3 21.75711817175121 1.5750000000000002 6.700000000000001 1 1 612
613 3 0.0 1.6622628641200032 5.758283721190079 1 1 613
614 3 0.32473310704106284 1.9210798243026774 4.848636460790841 1 1 614
615 3 0.6494662140821257 1.6622628641200032 5.758283721190079 1 1 615
616 3 0.9741993211231885 1.9210798243026774 4.848636460790841 1 1 616
617 3 1.2989324281642514 1.6622628641200032 5.758283721190079 1 1 617
618 3 1.6236655352053142 1.9210798243026774 4.848636460790841 1 1 618
619 3 1.948398642246377 1.6622628641200032 5.758283721190079 1 1 619
620 3 2.27313174928744 1.9210798243026774 4.848636460790841 1 1 620
621 3 2.5978648563285027 1.6622628641200032 5.758283721190079 1 1 621
622 3 2.9225979633695656 1.9210798243026774 4.848636460790841 1 1 622
623 3 3.2473310704106284 1.6622628641200032 5.758283721190079 1 1 623
624 3 3.5720641774516912 1.9210798243026774 4.848636460790841 1 1 624
625 3 3.896797284492754 1.6622628641200032 5.758283721190079 1 1 625
626 3 4.2215303915338165 1.9210798243026774 4.848636460790841 1 1 626
627 3 4.54626349857488 1.6622628641200032 5.758283721190079 1 1 627
628 3 4.870996605615943 1.9210798243026774 4.848636460790841 1 1 628
629 3 5.1957297126570055 1.6622628641200032 5.758283721190079 1 1 629
630 3 5.520462819698068 1.9210798243026774 4.848636460790841 1 1 630
631 3 5.845195926739131 1.6622628641200032 5.758283721190079 1 1 631
632 3 6.169929033780194 1.9210798243026774 4.848636460790841 1 1 632
633 3 6.494662140821257 1.6622628641200032 5.758283721190079 1 1 633
634 3 6.819395247862319 1.9210798243026774 4.848636460790841 1 1 634
635 3 7.1441283549033825 1.6622628641200032 5.758283721190079 1 1 635
636 3 7.468861461944446 1.9210798243026774 4.848636460790841 1 1 636
637 3 7.793594568985508 1.6622628641200032 5.758283721190079 1 1 637
638 3 8.11832767602657 1.9210798243026774 4.848636460790841 1 1 638
639 3 8.443060783067633 1.6622628641200032 5.758283721190079 1 1 639
640 3 8.767793890108697 1.9210798243026774 4.848636460790841 1 1 640
641 3 9.09252699714976 1.6622628641200032 5.758283721190079 1 1 641
642 3 9.417260104190822 1.9210798243026774 4.848636460790841 1 1 642
643 3 9.741993211231886 1.6622628641200032 5.758283721190079 1 1 643
644 3 10.066726318272949 1.9210798243026774 4.848636460790841 1 1 644
645 3 10.391459425314011 1.6622628641200032 5.758283721190079 1 1 645
646 3 10.716192532355073 1.9210798243026774 4.848636460790841 1 1 646
647 3 11.040925639396136 1.6622628641200032 5.758283721190079 1 1 647
648 3 11.3656587464372 1.9210798243026774 4.848636460790841 1 1 648
649 3 11.690391853478262 1.6622628641200032 5.758283721190079 1 1 649
650 3 12.015124960519325 1.9210798243026774 4.848636460790841 1 1 650
651 3 12.339858067560389 1.6622628641200032 5.758283721190079 1 1 651
652 3 12.664591174601451 1.9210798243026774 4.848636460790841 1 1 652
653 3 12.989324281642514 1.6622628641200032 5.758283721190079 1 1 653
654 3 13.314057388683576 1.9210798243026774 4.848636460790841 1 1 654
655 3 13.638790495724638 1.6622628641200032 5.758283721190079 1 1 655
656 3 13.963523602765703 1.9210798243026774 4.848636460790841 1 1 656
657 3 14.288256709806765 1.6622628641200032 5.758283721190079 1 1 657
658 3 14.612989816847827 1.9210798243026774 4.848636460790841 1 1 658
659 3 14.937722923888892 1.6622628641200032 5.758283721190079 1 1 659
660 3 15.262456030929954 1.9210798243026774 4.848636460790841 1 1 660
661 3 15.587189137971016 1.6622628641200032 5.758283721190079 1 1 661
662 3 15.911922245012079 1.9210798243026774 4.848636460790841 1 1 662
663 3 16.23665535205314 1.6622628641200032 5.758283721190079 1 1 663
664 3 16.561388459094204 1.9210798243026774 4.848636460790841 1 1 664
665 3 16.886121566135266 1.6622628641200032 5.758283721190079 1 1 665
666 3 17.210854673176332 1.9210798243026774 4.848636460790841 1 1 666
667 3 17.535587780217394 1.6622628641200032 5.758283721190079 1 1 667
668 3 17.860320887258457 1.9210798243026774 4.848636460790841 1 1 668
669 3 18.18505399429952 1.6622628641200032 5.758283721190079 1 1 669
670 3 18.50978710134058 1.9210798243026774 4.848636460790841 1 1 670
671 3 18.834520208381644 1.6622628641200032 5.758283721190079 1 1 671
672 3 19.159253315422706 1.9210798243026774 4.848636460790841 1 1 672
673 3 19.483986422463772 1.6622628641200032 5.758283721190079 1 1 673
674 3 19.808719529504835 1.9210798243026774 4.848636460790841 1 1 674
675 3 20.133452636545897 1.6622628641200032 5.758283721190079 1 1 675
676 3 20.45818574358696 1.9210798243026774 4.848636460790841 1 1 676
677 3 20.782918850628022 1.6622628641200032 5.758283721190079 1 1 677
678 3 21.107651957669084 1.9210798243026774 4.848636460790841 1 1 678
679 3 21.432385064710147 1.6622628641200032 5.758283721190079 1 1 679
680 3 21.75711817175121 1.9210798243026774 4.848636460790841 1 1 680
681 3 0.0 2.3426371793857275 4.0020351652535515 1 1 681
682 3 0.32473310704106284 2.9125792992441224 3.2473098263113944 1 1 682
683 3 0.6494662140821257 2.3426371793857275 4.0020351652535515 1 1 683
684 3 0.9741993211231885 2.9125792992441224 3.2473098263113944 1 1 684
685 3 1.2989324281642514 2.3426371793857275 4.0020351652535515 1 1 685
686 3 1.6236655352053142 2.9125792992441224 3.2473098263113944 1 1 686
687 3 1.948398642246377 2.3426371793857275 4.0020351652535515 1 1 687
688 3 2.27313174928744 2.9125792992441224 3.2473098263113944 1 1 688
689 3 2.5978648563285027 2.3426371793857275 4.0020351652535515 1 1 689
690 3 2.9225979633695656 2.9125792992441224 3.2473098263113944 1 1 690
691 3 3.2473310704106284 2.3426371793857275 4.0020351652535515 1 1 691
692 3 3.5720641774516912 2.9125792992441224 3.2473098263113944 1 1 692
693 3 3.896797284492754 2.3426371793857275 4.0020351652535515 1 1 693
694 3 4.2215303915338165 2.9125792992441224 3.2473098263113944 1 1 694
695 3 4.54626349857488 2.3426371793857275 4.0020351652535515 1 1 695
696 3 4.870996605615943 2.9125792992441224 3.2473098263113944 1 1 696
697 3 5.1957297126570055 2.3426371793857275 4.0020351652535515 1 1 697
698 3 5.520462819698068 2.9125792992441224 3.2473098263113944 1 1 698
699 3 5.845195926739131 2.3426371793857275 4.0020351652535515 1 1 699
700 3 6.169929033780194 2.9125792992441224 3.2473098263113944 1 1 700
701 3 6.494662140821257 2.3426371793857275 4.0020351652535515 1 1 701
702 3 6.819395247862319 2.9125792992441224 3.2473098263113944 1 1 702
703 3 7.1441283549033825 2.3426371793857275 4.0020351652535515 1 1 703
704 3 7.468861461944446 2.9125792992441224 3.2473098263113944 1 1 704
705 3 7.793594568985508 2.3426371793857275 4.0020351652535515 1 1 705
706 3 8.11832767602657 2.9125792992441224 3.2473098263113944 1 1 706
707 3 8.443060783067633 2.3426371793857275 4.0020351652535515 1 1 707
708 3 8.767793890108697 2.9125792992441224 3.2473098263113944 1 1 708
709 3 9.09252699714976 2.3426371793857275 4.0020351652535515 1 1 709
710 3 9.417260104190822 2.9125792992441224 3.2473098263113944 1 1 710
711 3 9.741993211231886 2.3426371793857275 4.0020351652535515 1 1 711
712 3 10.066726318272949 2.9125792992441224 3.2473098263113944 1 1 712
713 3 10.391459425314011 2.3426371793857275 4.0020351652535515 1 1 713
714 3 10.716192532355073 2.9125792992441224 3.2473098263113944 1 1 714
715 3 11.040925639396136 2.3426371793857275 4.0020351652535515 1 1 715
716 3 11.3656587464372 2.9125792992441224 3.2473098263113944 1 1 716
717 3 11.690391853478262 2.3426371793857275 4.0020351652535515 1 1 717
718 3 12.015124960519325 2.9125792992441224 3.2473098263113944 1 1 718
719 3 12.339858067560389 2.3426371793857275 4.0020351652535515 1 1 719
720 3 12.664591174601451 2.9125792992441224 3.2473098263113944 1 1 720
721 3 12.989324281642514 2.3426371793857275 4.0020351652535515 1 1 721
722 3 13.314057388683576 2.9125792992441224 3.2473098263113944 1 1 722
723 3 13.638790495724638 2.3426371793857275 4.0020351652535515 1 1 723
724 3 13.963523602765703 2.9125792992441224 3.2473098263113944 1 1 724
725 3 14.288256709806765 2.3426371793857275 4.0020351652535515 1 1 725
726 3 14.612989816847827 2.9125792992441224 3.2473098263113944 1 1 726
727 3 14.937722923888892 2.3426371793857275 4.0020351652535515 1 1 727
728 3 15.262456030929954 2.9125792992441224 3.2473098263113944 1 1 728
729 3 15.587189137971016 2.3426371793857275 4.0020351652535515 1 1 729
730 3 15.911922245012079 2.9125792992441224 3.2473098263113944 1 1 730
731 3 16.23665535205314 2.3426371793857275 4.0020351652535515 1 1 731
732 3 16.561388459094204 2.9125792992441224 3.2473098263113944 1 1 732
733 3 16.886121566135266 2.3426371793857275 4.0020351652535515 1 1 733
734 3 17.210854673176332 2.9125792992441224 3.2473098263113944 1 1 734
735 3 17.535587780217394 2.3426371793857275 4.0020351652535515 1 1 735
736 3 17.860320887258457 2.9125792992441224 3.2473098263113944 1 1 736
737 3 18.18505399429952 2.3426371793857275 4.0020351652535515 1 1 737
738 3 18.50978710134058 2.9125792992441224 3.2473098263113944 1 1 738
739 3 18.834520208381644 2.3426371793857275 4.0020351652535515 1 1 739
740 3 19.159253315422706 2.9125792992441224 3.2473098263113944 1 1 740
741 3 19.483986422463772 2.3426371793857275 4.0020351652535515 1 1 741
742 3 19.808719529504835 2.9125792992441224 3.2473098263113944 1 1 742
743 3 20.133452636545897 2.3426371793857275 4.0020351652535515 1 1 743
744 3 20.45818574358696 2.9125792992441224 3.2473098263113944 1 1 744
745 3 20.782918850628022 2.3426371793857275 4.0020351652535515 1 1 745
746 3 21.107651957669084 2.9125792992441224 3.2473098263113944 1 1 746
747 3 21.432385064710147 2.3426371793857275 4.0020351652535515 1 1 747
748 3 21.75711817175121 2.9125792992441224 3.2473098263113944 1 1 748
749 3 0.0 3.6114974885563105 2.6101617101887724 1 1 749
750 3 0.32473310704106284 4.415590926645242 2.112288131805305 1 1 750
751 3 0.6494662140821257 3.6114974885563105 2.6101617101887724 1 1 751
752 3 0.9741993211231885 4.415590926645242 2.112288131805305 1 1 752
753 3 1.2989324281642514 3.6114974885563105 2.6101617101887724 1 1 753
754 3 1.6236655352053142 4.415590926645242 2.112288131805305 1 1 754
755 3 1.948398642246377 3.6114974885563105 2.6101617101887724 1 1 755
756 3 2.27313174928744 4.415590926645242 2.112288131805305 1 1 756
757 3 2.5978648563285027 3.6114974885563105 2.6101617101887724 1 1 757
758 3 2.9225979633695656 4.415590926645242 2.112288131805305 1 1 758
759 3 3.2473310704106284 3.6114974885563105 2.6101617101887724 1 1 759
760 3 3.5720641774516912 4.415590926645242 2.112288131805305 1 1 760
761 3 3.896797284492754 3.6114974885563105 2.6101617101887724 1 1 761
762 3 4.2215303915338165 4.415590926645242 2.112288131805305 1 1 762
763 3 4.54626349857488 3.6114974885563105 2.6101617101887724 1 1 763
764 3 4.870996605615943 4.415590926645242 2.112288131805305 1 1 764
765 3 5.1957297126570055 3.6114974885563105 2.6101617101887724 1 1 765
766 3 5.520462819698068 4.415590926645242 2.112288131805305 1 1 766
767 3 5.845195926739131 3.6114974885563105 2.6101617101887724 1 1 767
768 3 6.169929033780194 4.415590926645242 2.112288131805305 1 1 768
769 3 6.494662140821257 3.6114974885563105 2.6101617101887724 1 1 769
770 3 6.819395247862319 4.415590926645242 2.112288131805305 1 1 770
771 3 7.1441283549033825 3.6114974885563105 2.6101617101887724 1 1 771
772 3 7.468861461944446 4.415590926645242 2.112288131805305 1 1 772
773 3 7.793594568985508 3.6114974885563105 2.6101617101887724 1 1 773
774 3 8.11832767602657 4.415590926645242 2.112288131805305 1 1 774
775 3 8.443060783067633 3.6114974885563105 2.6101617101887724 1 1 775
776 3 8.767793890108697 4.415590926645242 2.112288131805305 1 1 776
777 3 9.09252699714976 3.6114974885563105 2.6101617101887724 1 1 777
778 3 9.417260104190822 4.415590926645242 2.112288131805305 1 1 778
779 3 9.741993211231886 3.6114974885563105 2.6101617101887724 1 1 779
780 3 10.066726318272949 4.415590926645242 2.112288131805305 1 1 780
781 3 10.391459425314011 3.6114974885563105 2.6101617101887724 1 1 781
782 3 10.716192532355073 4.415590926645242 2.112288131805305 1 1 782
783 3 11.040925639396136 3.6114974885563105 2.6101617101887724 1 1 783
784 3 11.3656587464372 4.415590926645242 2.112288131805305 1 1 784
785 3 11.690391853478262 3.6114974885563105 2.6101617101887724 1 1 785
786 3 12.015124960519325 4.415590926645242 2.112288131805305 1 1 786
787 3 12.339858067560389 3.6114974885563105 2.6101617101887724 1 1 787
788 3 12.664591174601451 4.415590926645242 2.112288131805305 1 1 788
789 3 12.989324281642514 3.6114974885563105 2.6101617101887724 1 1 789
790 3 13.314057388683576 4.415590926645242 2.112288131805305 1 1 790
791 3 13.638790495724638 3.6114974885563105 2.6101617101887724 1 1 791
792 3 13.963523602765703 4.415590926645242 2.112288131805305 1 1 792
793 3 14.288256709806765 3.6114974885563105 2.6101617101887724 1 1 793
794 3 14.612989816847827 4.415590926645242 2.112288131805305 1 1 794
795 3 14.937722923888892 3.6114974885563105 2.6101617101887724 1 1 795
796 3 15.262456030929954 4.415590926645242 2.112288131805305 1 1 796
797 3 15.587189137971016 3.6114974885563105 2.6101617101887724 1 1 797
798 3 15.911922245012079 4.415590926645242 2.112288131805305 1 1 798
799 3 16.23665535205314 3.6114974885563105 2.6101617101887724 1 1 799
800 3 16.561388459094204 4.415590926645242 2.112288131805305 1 1 800
801 3 16.886121566135266 3.6114974885563105 2.6101617101887724 1 1 801
802 3 17.210854673176332 4.415590926645242 2.112288131805305 1 1 802
803 3 17.535587780217394 3.6114974885563105 2.6101617101887724 1 1 803
804 3 17.860320887258457 4.415590926645242 2.112288131805305 1 1 804
805 3 18.18505399429952 3.6114974885563105 2.6101617101887724 1 1 805
806 3 18.50978710134058 4.415590926645242 2.112288131805305 1 1 806
807 3 18.834520208381644 3.6114974885563105 2.6101617101887724 1 1 807
808 3 19.159253315422706 4.415590926645242 2.112288131805305 1 1 808
809 3 19.483986422463772 3.6114974885563105 2.6101617101887724 1 1 809
810 3 19.808719529504835 4.415590926645242 2.112288131805305 1 1 810
811 3 20.133452636545897 3.6114974885563105 2.6101617101887724 1 1 811
812 3 20.45818574358696 4.415590926645242 2.112288131805305 1 1 812
813 3 20.782918850628022 3.6114974885563105 2.6101617101887724 1 1 813
814 3 21.107651957669084 4.415590926645242 2.112288131805305 1 1 814
815 3 21.432385064710147 3.6114974885563105 2.6101617101887724 1 1 815
816 3 21.75711817175121 4.415590926645242 2.112288131805305 1 1 816
817 3 0.0 5.297477175880575 1.7706435787393024 1 1 817
818 3 0.32473310704106284 6.227124657750577 1.5968623464879483 1 1 818
819 3 0.6494662140821257 5.297477175880575 1.7706435787393024 1 1 819
820 3 0.9741993211231885 6.227124657750577 1.5968623464879483 1 1 820
821 3 1.2989324281642514 5.297477175880575 1.7706435787393024 1 1 821
822 3 1.6236655352053142 6.227124657750577 1.5968623464879483 1 1 822
823 3 1.948398642246377 5.297477175880575 1.7706435787393024 1 1 823
824 3 2.27313174928744 6.227124657750577 1.5968623464879483 1 1 824
825 3 2.5978648563285027 5.297477175880575 1.7706435787393024 1 1 825
826 3 2.9225979633695656 6.227124657750577 1.5968623464879483 1 1 826
827 3 3.2473310704106284 5.297477175880575 1.7706435787393024 1 1 827
828 3 3.5720641774516912 6.227124657750577 1.5968623464879483 1 1 828
829 3 3.896797284492754 5.297477175880575 1.7706435787393024 1 1 829
830 3 4.2215303915338165 6.227124657750577 1.5968623464879483 1 1 830
831 3 4.54626349857488 5.297477175880575 1.7706435787393024 1 1 831
832 3 4.870996605615943 6.227124657750577 1.5968623464879483 1 1 832
833 3 5.1957297126570055 5.297477175880575 1.7706435787393024 1 1 833
834 3 5.520462819698068 6.227124657750577 1.5968623464879483 1 1 834
835 3 5.845195926739131 5.297477175880575 1.7706435787393024 1 1 835
836 3 6.169929033780194 6.227124657750577 1.5968623464879483 1 1 836
837 3 6.494662140821257 5.297477175880575 1.7706435787393024 1 1 837
838 3 6.819395247862319 6.227124657750577 1.5968623464879483 1 1 838
839 3 7.1441283549033825 5.297477175880575 1.7706435787393024 1 1 839
840 3 7.468861461944446 6.227124657750577 1.5968623464879483 1 1 840
841 3 7.793594568985508 5.297477175880575 1.7706435787393024 1 1 841
842 3 8.11832767602657 6.227124657750577 1.5968623464879483 1 1 842
843 3 8.443060783067633 5.297477175880575 1.7706435787393024 1 1 843
844 3 8.767793890108697 6.227124657750577 1.5968623464879483 1 1 844
845 3 9.09252699714976 5.297477175880575 1.7706435787393024 1 1 845
846 3 9.417260104190822 6.227124657750577 1.5968623464879483 1 1 846
847 3 9.741993211231886 5.297477175880575 1.7706435787393024 1 1 847
848 3 10.066726318272949 6.227124657750577 1.5968623464879483 1 1 848
849 3 10.391459425314011 5.297477175880575 1.7706435787393024 1 1 849
850 3 10.716192532355073 6.227124657750577 1.5968623464879483 1 1 850
851 3 11.040925639396136 5.297477175880575 1.7706435787393024 1 1 851
852 3 11.3656587464372 6.227124657750577 1.5968623464879483 1 1 852
853 3 11.690391853478262 5.297477175880575 1.7706435787393024 1 1 853
854 3 12.015124960519325 6.227124657750577 1.5968623464879483 1 1 854
855 3 12.339858067560389 5.297477175880575 1.7706435787393024 1 1 855
856 3 12.664591174601451 6.227124657750577 1.5968623464879483 1 1 856
857 3 12.989324281642514 5.297477175880575 1.7706435787393024 1 1 857
858 3 13.314057388683576 6.227124657750577 1.5968623464879483 1 1 858
859 3 13.638790495724638 5.297477175880575 1.7706435787393024 1 1 859
860 3 13.963523602765703 6.227124657750577 1.5968623464879483 1 1 860
861 3 14.288256709806765 5.297477175880575 1.7706435787393024 1 1 861
862 3 14.612989816847827 6.227124657750577 1.5968623464879483 1 1 862
863 3 14.937722923888892 5.297477175880575 1.7706435787393024 1 1 863
864 3 15.262456030929954 6.227124657750577 1.5968623464879483 1 1 864
865 3 15.587189137971016 5.297477175880575 1.7706435787393024 1 1 865
866 3 15.911922245012079 6.227124657750577 1.5968623464879483 1 1 866
867 3 16.23665535205314 5.297477175880575 1.7706435787393024 1 1 867
868 3 16.561388459094204 6.227124657750577 1.5968623464879483 1 1 868
869 3 16.886121566135266 5.297477175880575 1.7706435787393024 1 1 869
870 3 17.210854673176332 6.227124657750577 1.5968623464879483 1 1 870
871 3 17.535587780217394 5.297477175880575 1.7706435787393024 1 1 871
872 3 17.860320887258457 6.227124657750577 1.5968623464879483 1 1 872
873 3 18.18505399429952 5.297477175880575 1.7706435787393024 1 1 873
874 3 18.50978710134058 6.227124657750577 1.5968623464879483 1 1 874
875 3 18.834520208381644 5.297477175880575 1.7706435787393024 1 1 875
876 3 19.159253315422706 6.227124657750577 1.5968623464879483 1 1 876
877 3 19.483986422463772 5.297477175880575 1.7706435787393024 1 1 877
878 3 19.808719529504835 6.227124657750577 1.5968623464879483 1 1 878
879 3 20.133452636545897 5.297477175880575 1.7706435787393024 1 1 879
880 3 20.45818574358696 6.227124657750577 1.5968623464879483 1 1 880
881 3 20.782918850628022 5.297477175880575 1.7706435787393024 1 1 881
882 3 21.107651957669084 6.227124657750577 1.5968623464879483 1 1 882
883 3 21.432385064710147 5.297477175880575 1.7706435787393024 1 1 883
884 3 21.75711817175121 6.227124657750577 1.5968623464879483 1 1 884
885 3 0.0 7.17287534224942 1.5968623464879483 1 1 885
886 3 0.32473310704106284 8.102522824119424 1.7706435787393024 1 1 886
887 3 0.6494662140821257 7.17287534224942 1.5968623464879483 1 1 887
888 3 0.9741993211231885 8.102522824119424 1.7706435787393024 1 1 888
889 3 1.2989324281642514 7.17287534224942 1.5968623464879483 1 1 889
890 3 1.6236655352053142 8.102522824119424 1.7706435787393024 1 1 890
891 3 1.948398642246377 7.17287534224942 1.5968623464879483 1 1 891
892 3 2.27313174928744 8.102522824119424 1.7706435787393024 1 1 892
893 3 2.5978648563285027 7.17287534224942 1.5968623464879483 1 1 893
894 3 2.9225979633695656 8.102522824119424 1.7706435787393024 1 1 894
895 3 3.2473310704106284 7.17287534224942 1.5968623464879483 1 1 895
896 3 3.5720641774516912 8.102522824119424 1.7706435787393024 1 1 896
897 3 3.896797284492754 7.17287534224942 1.5968623464879483 1 1 897
898 3 4.2215303915338165 8.102522824119424 1.7706435787393024 1 1 898
899 3 4.54626349857488 7.17287534224942 1.5968623464879483 1 1 899
900 3 4.870996605615943 8.102522824119424 1.7706435787393024 1 1 900
901 3 5.1957297126570055 7.17287534224942 1.5968623464879483 1 1 901
902 3 5.520462819698068 8.102522824119424 1.7706435787393024 1 1 902
903 3 5.845195926739131 7.17287534224942 1.5968623464879483 1 1 903
904 3 6.169929033780194 8.102522824119424 1.7706435787393024 1 1 904
905 3 6.494662140821257 7.17287534224942 1.5968623464879483 1 1 905
906 3 6.819395247862319 8.102522824119424 1.7706435787393024 1 1 906
907 3 7.1441283549033825 7.17287534224942 1.5968623464879483 1 1 907
908 3 7.468861461944446 8.102522824119424 1.7706435787393024 1 1 908
909 3 7.793594568985508 7.17287534224942 1.5968623464879483 1 1 909
910 3 8.11832767602657 8.102522824119424 1.7706435787393024 1 1 910
911 3 8.443060783067633 7.17287534224942 1.5968623464879483 1 1 911
912 3 8.767793890108697 8.102522824119424 1.7706435787393024 1 1 912
913 3 9.09252699714976 7.17287534224942 1.5968623464879483 1 1 913
914 3 9.417260104190822 8.102522824119424 1.7706435787393024 1 1 914
915 3 9.741993211231886 7.17287534224942 1.5968623464879483 1 1 915
916 3 10.066726318272949 8.102522824119424 1.7706435787393024 1 1 916
917 3 10.391459425314011 7.17287534224942 1.5968623464879483 1 1 917
918 3 10.716192532355073 8.102522824119424 1.7706435787393024 1 1 918
919 3 11.040925639396136 7.17287534224942 1.5968623464879483 1 1 919
920 3 11.3656587464372 8.102522824119424 1.7706435787393024 1 1 920
921 3 11.690391853478262 7.17287534224942 1.5968623464879483 1 1 921
922 3 12.015124960519325 8.102522824119424 1.7706435787393024 1 1 922
923 3 12.339858067560389 7.17287534224942 1.5968623464879483 1 1 923
924 3 12.664591174601451 8.102522824119424 1.7706435787393024 1 1 924
925 3 12.989324281642514 7.17287534224942 1.5968623464879483 1 1 925
926 3 13.314057388683576 8.102522824119424 1.7706435787393024 1 1 926
927 3 13.638790495724638 7.17287534224942 1.5968623464879483 1 1 927
928 3 13.963523602765703 8.102522824119424 1.7706435787393024 1 1 928
929 3 14.288256709806765 7.17287534224942 1.5968623464879483 1 1 929
930 3 14.612989816847827 8.102522824119424 1.7706435787393024 1 1 930
931 3 14.937722923888892 7.17287534224942 1.5968623464879483 1 1 931
932 3 15.262456030929954 8.102522824119424 1.7706435787393024 1 1 932
933 3 15.587189137971016 7.17287534224942 1.5968623464879483 1 1 933
934 3 15.911922245012079 8.102522824119424 1.7706435787393024 1 1 934
935 3 16.23665535205314 7.17287534224942 1.5968623464879483 1 1 935
936 3 16.561388459094204 8.102522824119424 1.7706435787393024 1 1 936
937 3 16.886121566135266 7.17287534224942 1.5968623464879483 1 1 937
938 3 17.210854673176332 8.102522824119424 1.7706435787393024 1 1 938
939 3 17.535587780217394 7.17287534224942 1.5968623464879483 1 1 939
940 3 17.860320887258457 8.102522824119424 1.7706435787393024 1 1 940
941 3 18.18505399429952 7.17287534224942 1.5968623464879483 1 1 941
942 3 18.50978710134058 8.102522824119424 1.7706435787393024 1 1 942
943 3 18.834520208381644 7.17287534224942 1.5968623464879483 1 1 943
944 3 19.159253315422706 8.102522824119424 1.7706435787393024 1 1 944
945 3 19.483986422463772 7.17287534224942 1.5968623464879483 1 1 945
946 3 19.808719529504835 8.102522824119424 1.7706435787393024 1 1 946
947 3 20.133452636545897 7.17287534224942 1.5968623464879483 1 1 947
948 3 20.45818574358696 8.102522824119424 1.7706435787393024 1 1 948
949 3 20.782918850628022 7.17287534224942 1.5968623464879483 1 1 949
950 3 21.107651957669084 8.102522824119424 1.7706435787393024 1 1 950
951 3 21.432385064710147 7.17287534224942 1.5968623464879483 1 1 951
952 3 21.75711817175121 8.102522824119424 1.7706435787393024 1 1 952
953 3 0.0 8.98440907335476 2.1122881318053066 1 1 953
954 3 0.32473310704106284 9.788502511443689 2.6101617101887715 1 1 954
955 3 0.6494662140821257 8.98440907335476 2.1122881318053066 1 1 955
956 3 0.9741993211231885 9.788502511443689 2.6101617101887715 1 1 956
957 3 1.2989324281642514 8.98440907335476 2.1122881318053066 1 1 957
958 3 1.6236655352053142 9.788502511443689 2.6101617101887715 1 1 958
959 3 1.948398642246377 8.98440907335476 2.1122881318053066 1 1 959
960 3 2.27313174928744 9.788502511443689 2.6101617101887715 1 1 960
961 3 2.5978648563285027 8.98440907335476 2.1122881318053066 1 1 961
962 3 2.9225979633695656 9.788502511443689 2.6101617101887715 1 1 962
963 3 3.2473310704106284 8.98440907335476 2.1122881318053066 1 1 963
964 3 3.5720641774516912 9.788502511443689 2.6101617101887715 1 1 964
965 3 3.896797284492754 8.98440907335476 2.1122881318053066 1 1 965
966 3 4.2215303915338165 9.788502511443689 2.6101617101887715 1 1 966
967 3 4.54626349857488 8.98440907335476 2.1122881318053066 1 1 967
968 3 4.870996605615943 9.788502511443689 2.6101617101887715 1 1 968
969 3 5.1957297126570055 8.98440907335476 2.1122881318053066 1 1 969
970 3 5.520462819698068 9.788502511443689 2.6101617101887715 1 1 970
971 3 5.845195926739131 8.98440907335476 2.1122881318053066 1 1 971
972 3 6.169929033780194 9.788502511443689 2.6101617101887715 1 1 972
973 3 6.494662140821257 8.98440907335476 2.1122881318053066 1 1 973
974 3 6.819395247862319 9.788502511443689 2.6101617101887715 1 1 974
975 3 7.1441283549033825 8.98440907335476 2.1122881318053066 1 1 975
976 3 7.468861461944446 9.788502511443689 2.6101617101887715 1 1 976
977 3 7.793594568985508 8.98440907335476 2.1122881318053066 1 1 977
978 3 8.11832767602657 9.788502511443689 2.6101617101887715 1 1 978
979 3 8.443060783067633 8.98440907335476 2.1122881318053066 1 1 979
980 3 8.767793890108697 9.788502511443689 2.6101617101887715 1 1 980
981 3 9.09252699714976 8.98440907335476 2.1122881318053066 1 1 981
982 3 9.417260104190822 9.788502511443689 2.6101617101887715 1 1 982
983 3 9.741993211231886 8.98440907335476 2.1122881318053066 1 1 983
984 3 10.066726318272949 9.788502511443689 2.6101617101887715 1 1 984
985 3 10.391459425314011 8.98440907335476 2.1122881318053066 1 1 985
986 3 10.716192532355073 9.788502511443689 2.6101617101887715 1 1 986
987 3 11.040925639396136 8.98440907335476 2.1122881318053066 1 1 987
988 3 11.3656587464372 9.788502511443689 2.6101617101887715 1 1 988
989 3 11.690391853478262 8.98440907335476 2.1122881318053066 1 1 989
990 3 12.015124960519325 9.788502511443689 2.6101617101887715 1 1 990
991 3 12.339858067560389 8.98440907335476 2.1122881318053066 1 1 991
992 3 12.664591174601451 9.788502511443689 2.6101617101887715 1 1 992
993 3 12.989324281642514 8.98440907335476 2.1122881318053066 1 1 993
994 3 13.314057388683576 9.788502511443689 2.6101617101887715 1 1 994
995 3 13.638790495724638 8.98440907335476 2.1122881318053066 1 1 995
996 3 13.963523602765703 9.788502511443689 2.6101617101887715 1 1 996
997 3 14.288256709806765 8.98440907335476 2.1122881318053066 1 1 997
998 3 14.612989816847827 9.788502511443689 2.6101617101887715 1 1 998
999 3 14.937722923888892 8.98440907335476 2.1122881318053066 1 1 999
1000 3 15.262456030929954 9.788502511443689 2.6101617101887715 1 1 1000
1001 3 15.587189137971016 8.98440907335476 2.1122881318053066 1 1 1001
1002 3 15.911922245012079 9.788502511443689 2.6101617101887715 1 1 1002
1003 3 16.23665535205314 8.98440907335476 2.1122881318053066 1 1 1003
1004 3 16.561388459094204 9.788502511443689 2.6101617101887715 1 1 1004
1005 3 16.886121566135266 8.98440907335476 2.1122881318053066 1 1 1005
1006 3 17.210854673176332 9.788502511443689 2.6101617101887715 1 1 1006
1007 3 17.535587780217394 8.98440907335476 2.1122881318053066 1 1 1007
1008 3 17.860320887258457 9.788502511443689 2.6101617101887715 1 1 1008
1009 3 18.18505399429952 8.98440907335476 2.1122881318053066 1 1 1009
1010 3 18.50978710134058 9.788502511443689 2.6101617101887715 1 1 1010
1011 3 18.834520208381644 8.98440907335476 2.1122881318053066 1 1 1011
1012 3 19.159253315422706 9.788502511443689 2.6101617101887715 1 1 1012
1013 3 19.483986422463772 8.98440907335476 2.1122881318053066 1 1 1013
1014 3 19.808719529504835 9.788502511443689 2.6101617101887715 1 1 1014
1015 3 20.133452636545897 8.98440907335476 2.1122881318053066 1 1 1015
1016 3 20.45818574358696 9.788502511443689 2.6101617101887715 1 1 1016
1017 3 20.782918850628022 8.98440907335476 2.1122881318053066 1 1 1017
1018 3 21.107651957669084 9.788502511443689 2.6101617101887715 1 1 1018
1019 3 21.432385064710147 8.98440907335476 2.1122881318053066 1 1 1019
1020 3 21.75711817175121 9.788502511443689 2.6101617101887715 1 1 1020
1021 3 0.0 10.487420700755878 3.247309826311395 1 1 1021
1022 3 0.32473310704106284 11.057362820614271 4.00203516525355 1 1 1022
1023 3 0.6494662140821257 10.487420700755878 3.247309826311395 1 1 1023
1024 3 0.9741993211231885 11.057362820614271 4.00203516525355 1 1 1024
1025 3 1.2989324281642514 10.487420700755878 3.247309826311395 1 1 1025
1026 3 1.6236655352053142 11.057362820614271 4.00203516525355 1 1 1026
1027 3 1.948398642246377 10.487420700755878 3.247309826311395 1 1 1027
1028 3 2.27313174928744 11.057362820614271 4.00203516525355 1 1 1028
1029 3 2.5978648563285027 10.487420700755878 3.247309826311395 1 1 1029
1030 3 2.9225979633695656 11.057362820614271 4.00203516525355 1 1 1030
1031 3 3.2473310704106284 10.487420700755878 3.247309826311395 1 1 1031
1032 3 3.5720641774516912 11.057362820614271 4.00203516525355 1 1 1032
1033 3 3.896797284492754 10.487420700755878 3.247309826311395 1 1 1033
1034 3 4.2215303915338165 11.057362820614271 4.00203516525355 1 1 1034
1035 3 4.54626349857488 10.487420700755878 3.247309826311395 1 1 1035
1036 3 4.870996605615943 11.057362820614271 4.00203516525355 1 1 1036
1037 3 5.1957297126570055 10.487420700755878 3.247309826311395 1 1 1037
1038 3 5.520462819698068 11.057362820614271 4.00203516525355 1 1 1038
1039 3 5.845195926739131 10.487420700755878 3.247309826311395 1 1 1039
1040 3 6.169929033780194 11.057362820614271 4.00203516525355 1 1 1040
1041 3 6.494662140821257 10.487420700755878 3.247309826311395 1 1 1041
1042 3 6.819395247862319 11.057362820614271 4.00203516525355 1 1 1042
1043 3 7.1441283549033825 10.487420700755878 3.247309826311395 1 1 1043
1044 3 7.468861461944446 11.057362820614271 4.00203516525355 1 1 1044
1045 3 7.793594568985508 10.487420700755878 3.247309826311395 1 1 1045
1046 3 8.11832767602657 11.057362820614271 4.00203516525355 1 1 1046
1047 3 8.443060783067633 10.487420700755878 3.247309826311395 1 1 1047
1048 3 8.767793890108697 11.057362820614271 4.00203516525355 1 1 1048
1049 3 9.09252699714976 10.487420700755878 3.247309826311395 1 1 1049
1050 3 9.417260104190822 11.057362820614271 4.00203516525355 1 1 1050
1051 3 9.741993211231886 10.487420700755878 3.247309826311395 1 1 1051
1052 3 10.066726318272949 11.057362820614271 4.00203516525355 1 1 1052
1053 3 10.391459425314011 10.487420700755878 3.247309826311395 1 1 1053
1054 3 10.716192532355073 11.057362820614271 4.00203516525355 1 1 1054
1055 3 11.040925639396136 10.487420700755878 3.247309826311395 1 1 1055
1056 3 11.3656587464372 11.057362820614271 4.00203516525355 1 1 1056
1057 3 11.690391853478262 10.487420700755878 3.247309826311395 1 1 1057
1058 3 12.015124960519325 11.057362820614271 4.00203516525355 1 1 1058
1059 3 12.339858067560389 10.487420700755878 3.247309826311395 1 1 1059
1060 3 12.664591174601451 11.057362820614271 4.00203516525355 1 1 1060
1061 3 12.989324281642514 10.487420700755878 3.247309826311395 1 1 1061
1062 3 13.314057388683576 11.057362820614271 4.00203516525355 1 1 1062
1063 3 13.638790495724638 10.487420700755878 3.247309826311395 1 1 1063
1064 3 13.963523602765703 11.057362820614271 4.00203516525355 1 1 1064
1065 3 14.288256709806765 10.487420700755878 3.247309826311395 1 1 1065
1066 3 14.612989816847827 11.057362820614271 4.00203516525355 1 1 1066
1067 3 14.937722923888892 10.487420700755878 3.247309826311395 1 1 1067
1068 3 15.262456030929954 11.057362820614271 4.00203516525355 1 1 1068
1069 3 15.587189137971016 10.487420700755878 3.247309826311395 1 1 1069
1070 3 15.911922245012079 11.057362820614271 4.00203516525355 1 1 1070
1071 3 16.23665535205314 10.487420700755878 3.247309826311395 1 1 1071
1072 3 16.561388459094204 11.057362820614271 4.00203516525355 1 1 1072
1073 3 16.886121566135266 10.487420700755878 3.247309826311395 1 1 1073
1074 3 17.210854673176332 11.057362820614271 4.00203516525355 1 1 1074
1075 3 17.535587780217394 10.487420700755878 3.247309826311395 1 1 1075
1076 3 17.860320887258457 11.057362820614271 4.00203516525355 1 1 1076
1077 3 18.18505399429952 10.487420700755878 3.247309826311395 1 1 1077
1078 3 18.50978710134058 11.057362820614271 4.00203516525355 1 1 1078
1079 3 18.834520208381644 10.487420700755878 3.247309826311395 1 1 1079
1080 3 19.159253315422706 11.057362820614271 4.00203516525355 1 1 1080
1081 3 19.483986422463772 10.487420700755878 3.247309826311395 1 1 1081
1082 3 19.808719529504835 11.057362820614271 4.00203516525355 1 1 1082
1083 3 20.133452636545897 10.487420700755878 3.247309826311395 1 1 1083
1084 3 20.45818574358696 11.057362820614271 4.00203516525355 1 1 1084
1085 3 20.782918850628022 10.487420700755878 3.247309826311395 1 1 1085
1086 3 21.107651957669084 11.057362820614271 4.00203516525355 1 1 1086
1087 3 21.432385064710147 10.487420700755878 3.247309826311395 1 1 1087
1088 3 21.75711817175121 11.057362820614271 4.00203516525355 1 1 1088
1089 3 0.0 11.478920175697324 4.848636460790841 1 1 1089
1090 3 0.32473310704106284 11.737737135879996 5.758283721190079 1 1 1090
1091 3 0.6494662140821257 11.478920175697324 4.848636460790841 1 1 1091
1092 3 0.9741993211231885 11.737737135879996 5.758283721190079 1 1 1092
1093 3 1.2989324281642514 11.478920175697324 4.848636460790841 1 1 1093
1094 3 1.6236655352053142 11.737737135879996 5.758283721190079 1 1 1094
1095 3 1.948398642246377 11.478920175697324 4.848636460790841 1 1 1095
1096 3 2.27313174928744 11.737737135879996 5.758283721190079 1 1 1096
1097 3 2.5978648563285027 11.478920175697324 4.848636460790841 1 1 1097
1098 3 2.9225979633695656 11.737737135879996 5.758283721190079 1 1 1098
1099 3 3.2473310704106284 11.478920175697324 4.848636460790841 1 1 1099
1100 3 3.5720641774516912 11.737737135879996 5.758283721190079 1 1 1100
1101 3 3.896797284492754 11.478920175697324 4.848636460790841 1 1 1101
1102 3 4.2215303915338165 11.737737135879996 5.758283721190079 1 1 1102
1103 3 4.54626349857488 11.478920175697324 4.848636460790841 1 1 1103
1104 3 4.870996605615943 11.737737135879996 5.758283721190079 1 1 1104
1105 3 5.1957297126570055 11.478920175697324 4.848636460790841 1 1 1105
1106 3 5.520462819698068 11.737737135879996 5.758283721190079 1 1 1106
1107 3 5.845195926739131 11.478920175697324 4.848636460790841 1 1 1107
1108 3 6.169929033780194 11.737737135879996 5.758283721190079 1 1 1108
1109 3 6.494662140821257 11.478920175697324 4.848636460790841 1 1 1109
1110 3 6.819395247862319 11.737737135879996 5.758283721190079 1 1 1110
1111 3 7.1441283549033825 11.478920175697324 4.848636460790841 1 1 1111
1112 3 7.468861461944446 11.737737135879996 5.758283721190079 1 1 1112
1113 3 7.793594568985508 11.478920175697324 4.848636460790841 1 1 1113
1114 3 8.11832767602657 11.737737135879996 5.758283721190079 1 1 1114
1115 3 8.443060783067633 11.478920175697324 4.848636460790841 1 1 1115
1116 3 8.767793890108697 11.737737135879996 5.758283721190079 1 1 1116
1117 3 9.09252699714976 11.478920175697324 4.848636460790841 1 1 1117
1118 3 9.417260104190822 11.737737135879996 5.758283721190079 1 1 1118
1119 3 9.741993211231886 11.478920175697324 4.848636460790841 1 1 1119
1120 3 10.066726318272949 11.737737135879996 5.758283721190079 1 1 1120
1121 3 10.391459425314011 11.478920175697324 4.848636460790841 1 1 1121
1122 3 10.716192532355073 11.737737135879996 5.758283721190079 1 1 1122
1123 3 11.040925639396136 11.478920175697324 4.848636460790841 1 1 1123
1124 3 11.3656587464372 11.737737135879996 5.758283721190079 1 1 1124
1125 3 11.690391853478262 11.478920175697324 4.848636460790841 1 1 1125
1126 3 12.015124960519325 11.737737135879996 5.758283721190079 1 1 1126
1127 3 12.339858067560389 11.478920175697324 4.848636460790841 1 1 1127
1128 3 12.664591174601451 11.737737135879996 5.758283721190079 1 1 1128
1129 3 12.989324281642514 11.478920175697324 4.848636460790841 1 1 1129
1130 3 13.314057388683576 11.737737135879996 5.758283721190079 1 1 1130
1131 3 13.638790495724638 11.478920175697324 4.848636460790841 1 1 1131
1132 3 13.963523602765703 11.737737135879996 5.758283721190079 1 1 1132
1133 3 14.288256709806765 11.478920175697324 4.848636460790841 1 1 1133
1134 3 14.612989816847827 11.737737135879996 5.758283721190079 1 1 1134
1135 3 14.937722923888892 11.478920175697324 4.848636460790841 1 1 1135
1136 3 15.262456030929954 11.737737135879996 5.758283721190079 1 1 1136
1137 3 15.587189137971016 11.478920175697324 4.848636460790841 1 1 1137
1138 3 15.911922245012079 11.737737135879996 5.758283721190079 1 1 1138
1139 3 16.23665535205314 11.478920175697324 4.848636460790841 1 1 1139
1140 3 16.561388459094204 11.737737135879996 5.758283721190079 1 1 1140
1141 3 16.886121566135266 11.478920175697324 4.848636460790841 1 1 1141
1142 3 17.210854673176332 11.737737135879996 5.758283721190079 1 1 1142
1143 3 17.535587780217394 11.478920175697324 4.848636460790841 1 1 1143
1144 3 17.860320887258457 11.737737135879996 5.758283721190079 1 1 1144
1145 3 18.18505399429952 11.478920175697324 4.848636460790841 1 1 1145
1146 3 18.50978710134058 11.737737135879996 5.758283721190079 1 1 1146
1147 3 18.834520208381644 11.478920175697324 4.848636460790841 1 1 1147
1148 3 19.159253315422706 11.737737135879996 5.758283721190079 1 1 1148
1149 3 19.483986422463772 11.478920175697324 4.848636460790841 1 1 1149
1150 3 19.808719529504835 11.737737135879996 5.758283721190079 1 1 1150
1151 3 20.133452636545897 11.478920175697324 4.848636460790841 1 1 1151
1152 3 20.45818574358696 11.737737135879996 5.758283721190079 1 1 1152
1153 3 20.782918850628022 11.478920175697324 4.848636460790841 1 1 1153
1154 3 21.107651957669084 11.737737135879996 5.758283721190079 1 1 1154
1155 3 21.432385064710147 11.478920175697324 4.848636460790841 1 1 1155
1156 3 21.75711817175121 11.737737135879996 5.758283721190079 1 1 1156
1157 3 0.32473310704106284 11.9 6.7 1 1 1157
1158 3 0.0 11.81146011835629 7.655497492646166 1 1 1158
1159 3 0.9741993211231885 11.9 6.7 1 1 1159
1160 3 0.6494662140821257 11.81146011835629 7.655497492646166 1 1 1160
1161 3 1.6236655352053142 11.9 6.7 1 1 1161
1162 3 1.2989324281642514 11.81146011835629 7.655497492646166 1 1 1162
1163 3 2.27313174928744 11.9 6.7 1 1 1163
1164 3 1.948398642246377 11.81146011835629 7.655497492646166 1 1 1164
1165 3 2.9225979633695656 11.9 6.7 1 1 1165
1166 3 2.5978648563285027 11.81146011835629 7.655497492646166 1 1 1166
1167 3 3.5720641774516912 11.9 6.7 1 1 1167
1168 3 3.2473310704106284 11.81146011835629 7.655497492646166 1 1 1168
1169 3 4.2215303915338165 11.9 6.7 1 1 1169
1170 3 3.896797284492754 11.81146011835629 7.655497492646166 1 1 1170
1171 3 4.870996605615943 11.9 6.7 1 1 1171
1172 3 4.54626349857488 11.81146011835629 7.655497492646166 1 1 1172
1173 3 5.520462819698068 11.9 6.7 1 1 1173
1174 3 5.1957297126570055 11.81146011835629 7.655497492646166 1 1 1174
1175 3 6.169929033780194 11.9 6.7 1 1 1175
1176 3 5.845195926739131 11.81146011835629 7.655497492646166 1 1 1176
1177 3 6.819395247862319 11.9 6.7 1 1 1177
1178 3 6.494662140821257 11.81146011835629 7.655497492646166 1 1 1178
1179 3 7.468861461944446 11.9 6.7 1 1 1179
1180 3 7.1441283549033825 11.81146011835629 7.655497492646166 1 1 1180
1181 3 8.11832767602657 11.9 6.7 1 1 1181
1182 3 7.793594568985508 11.81146011835629 7.655497492646166 1 1 1182
1183 3 8.767793890108697 11.9 6.7 1 1 1183
1184 3 8.443060783067633 11.81146011835629 7.655497492646166 1 1 1184
1185 3 9.417260104190822 11.9 6.7 1 1 1185
1186 3 9.09252699714976 11.81146011835629 7.655497492646166 1 1 1186
1187 3 10.066726318272949 11.9 6.7 1 1 1187
1188 3 9.741993211231886 11.81146011835629 7.655497492646166 1 1 1188
1189 3 10.716192532355073 11.9 6.7 1 1 1189
1190 3 10.391459425314011 11.81146011835629 7.655497492646166 1 1 1190
1191 3 11.3656587464372 11.9 6.7 1 1 1191
1192 3 11.040925639396136 11.81146011835629 7.655497492646166 1 1 1192
1193 3 12.015124960519325 11.9 6.7 1 1 1193
1194 3 11.690391853478262 11.81146011835629 7.655497492646166 1 1 1194
1195 3 12.664591174601451 11.9 6.7 1 1 1195
1196 3 12.339858067560389 11.81146011835629 7.655497492646166 1 1 1196
1197 3 13.314057388683576 11.9 6.7 1 1 1197
1198 3 12.989324281642514 11.81146011835629 7.655497492646166 1 1 1198
1199 3 13.963523602765703 11.9 6.7 1 1 1199
1200 3 13.638790495724638 11.81146011835629 7.655497492646166 1 1 1200
1201 3 14.612989816847827 11.9 6.7 1 1 1201
1202 3 14.288256709806765 11.81146011835629 7.655497492646166 1 1 1202
1203 3 15.262456030929954 11.9 6.7 1 1 1203
1204 3 14.937722923888892 11.81146011835629 7.655497492646166 1 1 1204
1205 3 15.911922245012079 11.9 6.7 1 1 1205
1206 3 15.587189137971016 11.81146011835629 7.655497492646166 1 1 1206
1207 3 16.561388459094204 11.9 6.7 1 1 1207
1208 3 16.23665535205314 11.81146011835629 7.655497492646166 1 1 1208
1209 3 17.210854673176332 11.9 6.7 1 1 1209
1210 3 16.886121566135266 11.81146011835629 7.655497492646166 1 1 1210
1211 3 17.860320887258457 11.9 6.7 1 1 1211
1212 3 17.535587780217394 11.81146011835629 7.655497492646166 1 1 1212
1213 3 18.50978710134058 11.9 6.7 1 1 1213
1214 3 18.18505399429952 11.81146011835629 7.655497492646166 1 1 1214
1215 3 19.159253315422706 11.9 6.7 1 1 1215
1216 3 18.834520208381644 11.81146011835629 7.655497492646166 1 1 1216
1217 3 19.808719529504835 11.9 6.7 1 1 1217
1218 3 19.483986422463772 11.81146011835629 7.655497492646166 1 1 1218
1219 3 20.45818574358696 11.9 6.7 1 1 1219
1220 3 20.133452636545897 11.81146011835629 7.655497492646166 1 1 1220
1221 3 21.107651957669084 11.9 6.7 1 1 1221
1222 3 20.782918850628022 11.81146011835629 7.655497492646166 1 1 1222
1223 3 21.75711817175121 11.9 6.7 1 1 1223
1224 3 21.432385064710147 11.81146011835629 7.655497492646166 1 1 1224
1225 3 0.32473310704106284 11.548855592902651 8.578456664173196 1 1 1225
1226 3 0.0 11.121129105793994 9.43744724696225 1 1 1226
1227 3 0.9741993211231885 11.548855592902651 8.578456664173196 1 1 1227
1228 3 0.6494662140821257 11.121129105793994 9.43744724696225 1 1 1228
1229 3 1.6236655352053142 11.548855592902651 8.578456664173196 1 1 1229
1230 3 1.2989324281642514 11.121129105793994 9.43744724696225 1 1 1230
1231 3 2.27313174928744 11.548855592902651 8.578456664173196 1 1 1231
1232 3 1.948398642246377 11.121129105793994 9.43744724696225 1 1 1232
1233 3 2.9225979633695656 11.548855592902651 8.578456664173196 1 1 1233
1234 3 2.5978648563285027 11.121129105793994 9.43744724696225 1 1 1234
1235 3 3.5720641774516912 11.548855592902651 8.578456664173196 1 1 1235
1236 3 3.2473310704106284 11.121129105793994 9.43744724696225 1 1 1236
1237 3 4.2215303915338165 11.548855592902651 8.578456664173196 1 1 1237
1238 3 3.896797284492754 11.121129105793994 9.43744724696225 1 1 1238
1239 3 4.870996605615943 11.548855592902651 8.578456664173196 1 1 1239
1240 3 4.54626349857488 11.121129105793994 9.43744724696225 1 1 1240
1241 3 5.520462819698068 11.548855592902651 8.578456664173196 1 1 1241
1242 3 5.1957297126570055 11.121129105793994 9.43744724696225 1 1 1242
1243 3 6.169929033780194 11.548855592902651 8.578456664173196 1 1 1243
1244 3 5.845195926739131 11.121129105793994 9.43744724696225 1 1 1244
1245 3 6.819395247862319 11.548855592902651 8.578456664173196 1 1 1245
1246 3 6.494662140821257 11.121129105793994 9.43744724696225 1 1 1246
1247 3 7.468861461944446 11.548855592902651 8.578456664173196 1 1 1247
1248 3 7.1441283549033825 11.121129105793994 9.43744724696225 1 1 1248
1249 3 8.11832767602657 11.548855592902651 8.578456664173196 1 1 1249
1250 3 7.793594568985508 11.121129105793994 9.43744724696225 1 1 1250
1251 3 8.767793890108697 11.548855592902651 8.578456664173196 1 1 1251
1252 3 8.443060783067633 11.121129105793994 9.43744724696225 1 1 1252
1253 3 9.417260104190822 11.548855592902651 8.578456664173196 1 1 1253
1254 3 9.09252699714976 11.121129105793994 9.43744724696225 1 1 1254
1255 3 10.066726318272949 11.548855592902651 8.578456664173196 1 1 1255
1256 3 9.741993211231886 11.121129105793994 9.43744724696225 1 1 1256
1257 3 10.716192532355073 11.548855592902651 8.578456664173196 1 1 1257
1258 3 10.391459425314011 11.121129105793994 9.43744724696225 1 1 1258
1259 3 11.3656587464372 11.548855592902651 8.578456664173196 1 1 1259
1260 3 11.040925639396136 11.121129105793994 9.43744724696225 1 1 1260
1261 3 12.015124960519325 11.548855592902651 8.578456664173196 1 1 1261
1262 3 11.690391853478262 11.121129105793994 9.43744724696225 1 1 1262
1263 3 12.664591174601451 11.548855592902651 8.578456664173196 1 1 1263
1264 3 12.339858067560389 11.121129105793994 9.43744724696225 1 1 1264
1265 3 13.314057388683576 11.548855592902651 8.578456664173196 1 1 1265
1266 3 12.989324281642514 11.121129105793994 9.43744724696225 1 1 1266
1267 3 13.963523602765703 11.548855592902651 8.578456664173196 1 1 1267
1268 3 13.638790495724638 11.121129105793994 9.43744724696225 1 1 1268
1269 3 14.612989816847827 11.548855592902651 8.578456664173196 1 1 1269
1270 3 14.288256709806765 11.121129105793994 9.43744724696225 1 1 1270
1271 3 15.262456030929954 11.548855592902651 8.578456664173196 1 1 1271
1272 3 14.937722923888892 11.121129105793994 9.43744724696225 1 1 1272
1273 3 15.911922245012079 11.548855592902651 8.578456664173196 1 1 1273
1274 3 15.587189137971016 11.121129105793994 9.43744724696225 1 1 1274
1275 3 16.561388459094204 11.548855592902651 8.578456664173196 1 1 1275
1276 3 16.23665535205314 11.121129105793994 9.43744724696225 1 1 1276
1277 3 17.210854673176332 11.548855592902651 8.578456664173196 1 1 1277
1278 3 16.886121566135266 11.121129105793994 9.43744724696225 1 1 1278
1279 3 17.860320887258457 11.548855592902651 8.578456664173196 1 1 1279
1280 3 17.535587780217394 11.121129105793994 9.43744724696225 1 1 1280
1281 3 18.50978710134058 11.548855592902651 8.578456664173196 1 1 1281
1282 3 18.18505399429952 11.121129105793994 9.43744724696225 1 1 1282
1283 3 19.159253315422706 11.548855592902651 8.578456664173196 1 1 1283
1284 3 18.834520208381644 11.121129105793994 9.43744724696225 1 1 1284
1285 3 19.808719529504835 11.548855592902651 8.578456664173196 1 1 1285
1286 3 19.483986422463772 11.121129105793994 9.43744724696225 1 1 1286
1287 3 20.45818574358696 11.548855592902651 8.578456664173196 1 1 1287
1288 3 20.133452636545897 11.121129105793994 9.43744724696225 1 1 1288
1289 3 21.107651957669084 11.548855592902651 8.578456664173196 1 1 1289
1290 3 20.782918850628022 11.121129105793994 9.43744724696225 1 1 1290
1291 3 21.75711817175121 11.548855592902651 8.578456664173196 1 1 1291
1292 3 21.432385064710147 11.121129105793994 9.43744724696225 1 1 1292
1293 3 0.32473310704106284 10.542846369547428 10.203217346962099 1 1 1293
1294 3 0.0 9.833700109172133 10.849689581857245 1 1 1294
1295 3 0.9741993211231885 10.542846369547428 10.203217346962099 1 1 1295
1296 3 0.6494662140821257 9.833700109172133 10.849689581857245 1 1 1296
1297 3 1.6236655352053142 10.542846369547428 10.203217346962099 1 1 1297
1298 3 1.2989324281642514 9.833700109172133 10.849689581857245 1 1 1298
1299 3 2.27313174928744 10.542846369547428 10.203217346962099 1 1 1299
1300 3 1.948398642246377 9.833700109172133 10.849689581857245 1 1 1300
1301 3 2.9225979633695656 10.542846369547428 10.203217346962099 1 1 1301
1302 3 2.5978648563285027 9.833700109172133 10.849689581857245 1 1 1302
1303 3 3.5720641774516912 10.542846369547428 10.203217346962099 1 1 1303
1304 3 3.2473310704106284 9.833700109172133 10.849689581857245 1 1 1304
1305 3 4.2215303915338165 10.542846369547428 10.203217346962099 1 1 1305
1306 3 3.896797284492754 9.833700109172133 10.849689581857245 1 1 1306
1307 3 4.870996605615943 10.542846369547428 10.203217346962099 1 1 1307
1308 3 4.54626349857488 9.833700109172133 10.849689581857245 1 1 1308
1309 3 5.520462819698068 10.542846369547428 10.203217346962099 1 1 1309
1310 3 5.1957297126570055 9.833700109172133 10.849689581857245 1 1 1310
1311 3 6.169929033780194 10.542846369547428 10.203217346962099 1 1 1311
1312 3 5.845195926739131 9.833700109172133 10.849689581857245 1 1 1312
1313 3 6.819395247862319 10.542846369547428 10.203217346962099 1 1 1313
1314 3 6.494662140821257 9.833700109172133 10.849689581857245 1 1 1314
1315 3 7.468861461944446 10.542846369547428 10.203217346962099 1 1 1315
1316 3 7.1441283549033825 9.833700109172133 10.849689581857245 1 1 1316
1317 3 8.11832767602657 10.542846369547428 10.203217346962099 1 1 1317
1318 3 7.793594568985508 9.833700109172133 10.849689581857245 1 1 1318
1319 3 8.767793890108697 10.542846369547428 10.203217346962099 1 1 1319
1320 3 8.443060783067633 9.833700109172133 10.849689581857245 1 1 1320
1321 3 9.417260104190822 10.542846369547428 10.203217346962099 1 1 1321
1322 3 9.09252699714976 9.833700109172133 10.849689581857245 1 1 1322
1323 3 10.066726318272949 10.542846369547428 10.203217346962099 1 1 1323
1324 3 9.741993211231886 9.833700109172133 10.849689581857245 1 1 1324
1325 3 10.716192532355073 10.542846369547428 10.203217346962099 1 1 1325
1326 3 10.391459425314011 9.833700109172133 10.849689581857245 1 1 1326
1327 3 11.3656587464372 10.542846369547428 10.203217346962099 1 1 1327
1328 3 11.040925639396136 9.833700109172133 10.849689581857245 1 1 1328
1329 3 12.015124960519325 10.542846369547428 10.203217346962099 1 1 1329
1330 3 11.690391853478262 9.833700109172133 10.849689581857245 1 1 1330
1331 3 12.664591174601451 10.542846369547428 10.203217346962099 1 1 1331
1332 3 12.339858067560389 9.833700109172133 10.849689581857245 1 1 1332
1333 3 13.314057388683576 10.542846369547428 10.203217346962099 1 1 1333
1334 3 12.989324281642514 9.833700109172133 10.849689581857245 1 1 1334
1335 3 13.963523602765703 10.542846369547428 10.203217346962099 1 1 1335
1336 3 13.638790495724638 9.833700109172133 10.849689581857245 1 1 1336
1337 3 14.612989816847827 10.542846369547428 10.203217346962099 1 1 1337
1338 3 14.288256709806765 9.833700109172133 10.849689581857245 1 1 1338
1339 3 15.262456030929954 10.542846369547428 10.203217346962099 1 1 1339
1340 3 14.937722923888892 9.833700109172133 10.849689581857245 1 1 1340
1341 3 15.911922245012079 10.542846369547428 10.203217346962099 1 1 1341
1342 3 15.587189137971016 9.833700109172133 10.849689581857245 1 1 1342
1343 3 16.561388459094204 10.542846369547428 10.203217346962099 1 1 1343
1344 3 16.23665535205314 9.833700109172133 10.849689581857245 1 1 1344
1345 3 17.210854673176332 10.542846369547428 10.203217346962099 1 1 1345
1346 3 16.886121566135266 9.833700109172133 10.849689581857245 1 1 1346
1347 3 17.860320887258457 10.542846369547428 10.203217346962099 1 1 1347
1348 3 17.535587780217394 9.833700109172133 10.849689581857245 1 1 1348
1349 3 18.50978710134058 10.542846369547428 10.203217346962099 1 1 1349
1350 3 18.18505399429952 9.833700109172133 10.849689581857245 1 1 1350
1351 3 19.159253315422706 10.542846369547428 10.203217346962099 1 1 1351
1352 3 18.834520208381644 9.833700109172133 10.849689581857245 1 1 1352
1353 3 19.808719529504835 10.542846369547428 10.203217346962099 1 1 1353
1354 3 19.483986422463772 9.833700109172133 10.849689581857245 1 1 1354
1355 3 20.45818574358696 10.542846369547428 10.203217346962099 1 1 1355
1356 3 20.133452636545897 9.833700109172133 10.849689581857245 1 1 1356
1357 3 21.107651957669084 10.542846369547428 10.203217346962099 1 1 1357
1358 3 20.782918850628022 9.833700109172133 10.849689581857245 1 1 1358
1359 3 21.75711817175121 10.542846369547428 10.203217346962099 1 1 1359
1360 3 21.432385064710147 9.833700109172133 10.849689581857245 1 1 1360
1361 3 0.32473310704106284 9.017839450038 11.354849115046324 1 1 1361
1362 3 0.0 8.123047548374831 11.701493344498658 1 1 1362
1363 3 0.9741993211231885 9.017839450038 11.354849115046324 1 1 1363
1364 3 0.6494662140821257 8.123047548374831 11.701493344498658 1 1 1364
1365 3 1.6236655352053142 9.017839450038 11.354849115046324 1 1 1365
1366 3 1.2989324281642514 8.123047548374831 11.701493344498658 1 1 1366
1367 3 2.27313174928744 9.017839450038 11.354849115046324 1 1 1367
1368 3 1.948398642246377 8.123047548374831 11.701493344498658 1 1 1368
1369 3 2.9225979633695656 9.017839450038 11.354849115046324 1 1 1369
1370 3 2.5978648563285027 8.123047548374831 11.701493344498658 1 1 1370
1371 3 3.5720641774516912 9.017839450038 11.354849115046324 1 1 1371
1372 3 3.2473310704106284 8.123047548374831 11.701493344498658 1 1 1372
1373 3 4.2215303915338165 9.017839450038 11.354849115046324 1 1 1373
1374 3 3.896797284492754 8.123047548374831 11.701493344498658 1 1 1374
1375 3 4.870996605615943 9.017839450038 11.354849115046324 1 1 1375
1376 3 4.54626349857488 8.123047548374831 11.701493344498658 1 1 1376
1377 3 5.520462819698068 9.017839450038 11.354849115046324 1 1 1377
1378 3 5.1957297126570055 8.123047548374831 11.701493344498658 1 1 1378
1379 3 6.169929033780194 9.017839450038 11.354849115046324 1 1 1379
1380 3 5.845195926739131 8.123047548374831 11.701493344498658 1 1 1380
1381 3 6.819395247862319 9.017839450038 11.354849115046324 1 1 1381
1382 3 6.494662140821257 8.123047548374831 11.701493344498658 1 1 1382
1383 3 7.468861461944446 9.017839450038 11.354849115046324 1 1 1383
1384 3 7.1441283549033825 8.123047548374831 11.701493344498658 1 1 1384
1385 3 8.11832767602657 9.017839450038 11.354849115046324 1 1 1385
1386 3 7.793594568985508 8.123047548374831 11.701493344498658 1 1 1386
1387 3 8.767793890108697 9.017839450038 11.354849115046324 1 1 1387
1388 3 8.443060783067633 8.123047548374831 11.701493344498658 1 1 1388
1389 3 9.417260104190822 9.017839450038 11.354849115046324 1 1 1389
1390 3 9.09252699714976 8.123047548374831 11.701493344498658 1 1 1390
1391 3 10.066726318272949 9.017839450038 11.354849115046324 1 1 1391
1392 3 9.741993211231886 8.123047548374831 11.701493344498658 1 1 1392
1393 3 10.716192532355073 9.017839450038 11.354849115046324 1 1 1393
1394 3 10.391459425314011 8.123047548374831 11.701493344498658 1 1 1394
1395 3 11.3656587464372 9.017839450038 11.354849115046324 1 1 1395
1396 3 11.040925639396136 8.123047548374831 11.701493344498658 1 1 1396
1397 3 12.015124960519325 9.017839450038 11.354849115046324 1 1 1397
1398 3 11.690391853478262 8.123047548374831 11.701493344498658 1 1 1398
1399 3 12.664591174601451 9.017839450038 11.354849115046324 1 1 1399
1400 3 12.339858067560389 8.123047548374831 11.701493344498658 1 1 1400
1401 3 13.314057388683576 9.017839450038 11.354849115046324 1 1 1401
1402 3 12.989324281642514 8.123047548374831 11.701493344498658 1 1 1402
1403 3 13.963523602765703 9.017839450038 11.354849115046324 1 1 1403
1404 3 13.638790495724638 8.123047548374831 11.701493344498658 1 1 1404
1405 3 14.612989816847827 9.017839450038 11.354849115046324 1 1 1405
1406 3 14.288256709806765 8.123047548374831 11.701493344498658 1 1 1406
1407 3 15.262456030929954 9.017839450038 11.354849115046324 1 1 1407
1408 3 14.937722923888892 8.123047548374831 11.701493344498658 1 1 1408
1409 3 15.911922245012079 9.017839450038 11.354849115046324 1 1 1409
1410 3 15.587189137971016 8.123047548374831 11.701493344498658 1 1 1410
1411 3 16.561388459094204 9.017839450038 11.354849115046324 1 1 1411
1412 3 16.23665535205314 8.123047548374831 11.701493344498658 1 1 1412
1413 3 17.210854673176332 9.017839450038 11.354849115046324 1 1 1413
1414 3 16.886121566135266 8.123047548374831 11.701493344498658 1 1 1414
1415 3 17.860320887258457 9.017839450038 11.354849115046324 1 1 1415
1416 3 17.535587780217394 8.123047548374831 11.701493344498658 1 1 1416
1417 3 18.50978710134058 9.017839450038 11.354849115046324 1 1 1417
1418 3 18.18505399429952 8.123047548374831 11.701493344498658 1 1 1418
1419 3 19.159253315422706 9.017839450038 11.354849115046324 1 1 1419
1420 3 18.834520208381644 8.123047548374831 11.701493344498658 1 1 1420
1421 3 19.808719529504835 9.017839450038 11.354849115046324 1 1 1421
1422 3 19.483986422463772 8.123047548374831 11.701493344498658 1 1 1422
1423 3 20.45818574358696 9.017839450038 11.354849115046324 1 1 1423
1424 3 20.133452636545897 8.123047548374831 11.701493344498658 1 1 1424
1425 3 21.107651957669084 9.017839450038 11.354849115046324 1 1 1425
1426 3 20.782918850628022 8.123047548374831 11.701493344498658 1 1 1426
1427 3 21.75711817175121 9.017839450038 11.354849115046324 1 1 1427
1428 3 21.432385064710147 8.123047548374831 11.701493344498658 1 1 1428
1429 3 0.32473310704106284 7.1797954692091706 11.87781771673418 1 1 1429
1430 3 0.0 6.220204530790831 11.87781771673418 1 1 1430
1431 3 0.9741993211231885 7.1797954692091706 11.87781771673418 1 1 1431
1432 3 0.6494662140821257 6.220204530790831 11.87781771673418 1 1 1432
1433 3 1.6236655352053142 7.1797954692091706 11.87781771673418 1 1 1433
1434 3 1.2989324281642514 6.220204530790831 11.87781771673418 1 1 1434
1435 3 2.27313174928744 7.1797954692091706 11.87781771673418 1 1 1435
1436 3 1.948398642246377 6.220204530790831 11.87781771673418 1 1 1436
1437 3 2.9225979633695656 7.1797954692091706 11.87781771673418 1 1 1437
1438 3 2.5978648563285027 6.220204530790831 11.87781771673418 1 1 1438
1439 3 3.5720641774516912 7.1797954692091706 11.87781771673418 1 1 1439
1440 3 3.2473310704106284 6.220204530790831 11.87781771673418 1 1 1440
1441 3 4.2215303915338165 7.1797954692091706 11.87781771673418 1 1 1441
1442 3 3.896797284492754 6.220204530790831 11.87781771673418 1 1 1442
1443 3 4.870996605615943 7.1797954692091706 11.87781771673418 1 1 1443
1444 3 4.54626349857488 6.220204530790831 11.87781771673418 1 1 1444
1445 3 5.520462819698068 7.1797954692091706 11.87781771673418 1 1 1445
1446 3 5.1957297126570055 6.220204530790831 11.87781771673418 1 1 1446
1447 3 6.169929033780194 7.1797954692091706 11.87781771673418 1 1 1447
1448 3 5.845195926739131 6.220204530790831 11.87781771673418 1 1 1448
1449 3 6.819395247862319 7.1797954692091706 11.87781771673418 1 1 1449
1450 3 6.494662140821257 6.220204530790831 11.87781771673418 1 1 1450
1451 3 7.468861461944446 7.1797954692091706 11.87781771673418 1 1 1451
1452 3 7.1441283549033825 6.220204530790831 11.87781771673418 1 1 1452
1453 3 8.11832767602657 7.1797954692091706 11.87781771673418 1 1 1453
1454 3 7.793594568985508 6.220204530790831 11.87781771673418 1 1 1454
1455 3 8.767793890108697 7.1797954692091706 11.87781771673418 1 1 1455
1456 3 8.443060783067633 6.220204530790831 11.87781771673418 1 1 1456
1457 3 9.417260104190822 7.1797954692091706 11.87781771673418 1 1 1457
1458 3 9.09252699714976 6.220204530790831 11.87781771673418 1 1 1458
1459 3 10.066726318272949 7.1797954692091706 11.87781771673418 1 1 1459
1460 3 9.741993211231886 6.220204530790831 11.87781771673418 1 1 1460
1461 3 10.716192532355073 7.1797954692091706 11.87781771673418 1 1 1461
1462 3 10.391459425314011 6.220204530790831 11.87781771673418 1 1 1462
1463 3 11.3656587464372 7.1797954692091706 11.87781771673418 1 1 1463
1464 3 11.040925639396136 6.220204530790831 11.87781771673418 1 1 1464
1465 3 12.015124960519325 7.1797954692091706 11.87781771673418 1 1 1465
1466 3 11.690391853478262 6.220204530790831 11.87781771673418 1 1 1466
1467 3 12.664591174601451 7.1797954692091706 11.87781771673418 1 1 1467
1468 3 12.339858067560389 6.220204530790831 11.87781771673418 1 1 1468
1469 3 13.314057388683576 7.1797954692091706 11.87781771673418 1 1 1469
1470 3 12.989324281642514 6.220204530790831 11.87781771673418 1 1 1470
1471 3 13.963523602765703 7.1797954692091706 11.87781771673418 1 1 1471
1472 3 13.638790495724638 6.220204530790831 11.87781771673418 1 1 1472
1473 3 14.612989816847827 7.1797954692091706 11.87781771673418 1 1 1473
1474 3 14.288256709806765 6.220204530790831 11.87781771673418 1 1 1474
1475 3 15.262456030929954 7.1797954692091706 11.87781771673418 1 1 1475
1476 3 14.937722923888892 6.220204530790831 11.87781771673418 1 1 1476
1477 3 15.911922245012079 7.1797954692091706 11.87781771673418 1 1 1477
1478 3 15.587189137971016 6.220204530790831 11.87781771673418 1 1 1478
1479 3 16.561388459094204 7.1797954692091706 11.87781771673418 1 1 1479
1480 3 16.23665535205314 6.220204530790831 11.87781771673418 1 1 1480
1481 3 17.210854673176332 7.1797954692091706 11.87781771673418 1 1 1481
1482 3 16.886121566135266 6.220204530790831 11.87781771673418 1 1 1482
1483 3 17.860320887258457 7.1797954692091706 11.87781771673418 1 1 1483
1484 3 17.535587780217394 6.220204530790831 11.87781771673418 1 1 1484
1485 3 18.50978710134058 7.1797954692091706 11.87781771673418 1 1 1485
1486 3 18.18505399429952 6.220204530790831 11.87781771673418 1 1 1486
1487 3 19.159253315422706 7.1797954692091706 11.87781771673418 1 1 1487
1488 3 18.834520208381644 6.220204530790831 11.87781771673418 1 1 1488
1489 3 19.808719529504835 7.1797954692091706 11.87781771673418 1 1 1489
1490 3 19.483986422463772 6.220204530790831 11.87781771673418 1 1 1490
1491 3 20.45818574358696 7.1797954692091706 11.87781771673418 1 1 1491
1492 3 20.133452636545897 6.220204530790831 11.87781771673418 1 1 1492
1493 3 21.107651957669084 7.1797954692091706 11.87781771673418 1 1 1493
1494 3 20.782918850628022 6.220204530790831 11.87781771673418 1 1 1494
1495 3 21.75711817175121 7.1797954692091706 11.87781771673418 1 1 1495
1496 3 21.432385064710147 6.220204530790831 11.87781771673418 1 1 1496
1497 3 0.32473310704106284 5.276952451625169 11.701493344498658 1 1 1497
1498 3 0.0 4.382160549962002 11.354849115046324 1 1 1498
1499 3 0.9741993211231885 5.276952451625169 11.701493344498658 1 1 1499
1500 3 0.6494662140821257 4.382160549962002 11.354849115046324 1 1 1500
1501 3 1.6236655352053142 5.276952451625169 11.701493344498658 1 1 1501
1502 3 1.2989324281642514 4.382160549962002 11.354849115046324 1 1 1502
1503 3 2.27313174928744 5.276952451625169 11.701493344498658 1 1 1503
1504 3 1.948398642246377 4.382160549962002 11.354849115046324 1 1 1504
1505 3 2.9225979633695656 5.276952451625169 11.701493344498658 1 1 1505
1506 3 2.5978648563285027 4.382160549962002 11.354849115046324 1 1 1506
1507 3 3.5720641774516912 5.276952451625169 11.701493344498658 1 1 1507
1508 3 3.2473310704106284 4.382160549962002 11.354849115046324 1 1 1508
1509 3 4.2215303915338165 5.276952451625169 11.701493344498658 1 1 1509
1510 3 3.896797284492754 4.382160549962002 11.354849115046324 1 1 1510
1511 3 4.870996605615943 5.276952451625169 11.701493344498658 1 1 1511
1512 3 4.54626349857488 4.382160549962002 11.354849115046324 1 1 1512
1513 3 5.520462819698068 5.276952451625169 11.701493344498658 1 1 1513
1514 3 5.1957297126570055 4.382160549962002 11.354849115046324 1 1 1514
1515 3 6.169929033780194 5.276952451625169 11.701493344498658 1 1 1515
1516 3 5.845195926739131 4.382160549962002 11.354849115046324 1 1 1516
1517 3 6.819395247862319 5.276952451625169 11.701493344498658 1 1 1517
1518 3 6.494662140821257 4.382160549962002 11.354849115046324 1 1 1518
1519 3 7.468861461944446 5.276952451625169 11.701493344498658 1 1 1519
1520 3 7.1441283549033825 4.382160549962002 11.354849115046324 1 1 1520
1521 3 8.11832767602657 5.276952451625169 11.701493344498658 1 1 1521
1522 3 7.793594568985508 4.382160549962002 11.354849115046324 1 1 1522
1523 3 8.767793890108697 5.276952451625169 11.701493344498658 1 1 1523
1524 3 8.443060783067633 4.382160549962002 11.354849115046324 1 1 1524
1525 3 9.417260104190822 5.276952451625169 11.701493344498658 1 1 1525
1526 3 9.09252699714976 4.382160549962002 11.354849115046324 1 1 1526
1527 3 10.066726318272949 5.276952451625169 11.701493344498658 1 1 1527
1528 3 9.741993211231886 4.382160549962002 11.354849115046324 1 1 1528
1529 3 10.716192532355073 5.276952451625169 11.701493344498658 1 1 1529
1530 3 10.391459425314011 4.382160549962002 11.354849115046324 1 1 1530
1531 3 11.3656587464372 5.276952451625169 11.701493344498658 1 1 1531
1532 3 11.040925639396136 4.382160549962002 11.354849115046324 1 1 1532
1533 3 12.015124960519325 5.276952451625169 11.701493344498658 1 1 1533
1534 3 11.690391853478262 4.382160549962002 11.354849115046324 1 1 1534
1535 3 12.664591174601451 5.276952451625169 11.701493344498658 1 1 1535
1536 3 12.339858067560389 4.382160549962002 11.354849115046324 1 1 1536
1537 3 13.314057388683576 5.276952451625169 11.701493344498658 1 1 1537
1538 3 12.989324281642514 4.382160549962002 11.354849115046324 1 1 1538
1539 3 13.963523602765703 5.276952451625169 11.701493344498658 1 1 1539
1540 3 13.638790495724638 4.382160549962002 11.354849115046324 1 1 1540
1541 3 14.612989816847827 5.276952451625169 11.701493344498658 1 1 1541
1542 3 14.288256709806765 4.382160549962002 11.354849115046324 1 1 1542
1543 3 15.262456030929954 5.276952451625169 11.701493344498658 1 1 1543
1544 3 14.937722923888892 4.382160549962002 11.354849115046324 1 1 1544
1545 3 15.911922245012079 5.276952451625169 11.701493344498658 1 1 1545
1546 3 15.587189137971016 4.382160549962002 11.354849115046324 1 1 1546
1547 3 16.561388459094204 5.276952451625169 11.701493344498658 1 1 1547
1548 3 16.23665535205314 4.382160549962002 11.354849115046324 1 1 1548
1549 3 17.210854673176332 5.276952451625169 11.701493344498658 1 1 1549
1550 3 16.886121566135266 4.382160549962002 11.354849115046324 1 1 1550
1551 3 17.860320887258457 5.276952451625169 11.701493344498658 1 1 1551
1552 3 17.535587780217394 4.382160549962002 11.354849115046324 1 1 1552
1553 3 18.50978710134058 5.276952451625169 11.701493344498658 1 1 1553
1554 3 18.18505399429952 4.382160549962002 11.354849115046324 1 1 1554
1555 3 19.159253315422706 5.276952451625169 11.701493344498658 1 1 1555
1556 3 18.834520208381644 4.382160549962002 11.354849115046324 1 1 1556
1557 3 19.808719529504835 5.276952451625169 11.701493344498658 1 1 1557
1558 3 19.483986422463772 4.382160549962002 11.354849115046324 1 1 1558
1559 3 20.45818574358696 5.276952451625169 11.701493344498658 1 1 1559
1560 3 20.133452636545897 4.382160549962002 11.354849115046324 1 1 1560
1561 3 21.107651957669084 5.276952451625169 11.701493344498658 1 1 1561
1562 3 20.782918850628022 4.382160549962002 11.354849115046324 1 1 1562
1563 3 21.75711817175121 5.276952451625169 11.701493344498658 1 1 1563
1564 3 21.432385064710147 4.382160549962002 11.354849115046324 1 1 1564
1565 3 0.32473310704106284 3.5662998908278674 10.849689581857247 1 1 1565
1566 3 0.0 2.8571536304525735 10.203217346962099 1 1 1566
1567 3 0.9741993211231885 3.5662998908278674 10.849689581857247 1 1 1567
1568 3 0.6494662140821257 2.8571536304525735 10.203217346962099 1 1 1568
1569 3 1.6236655352053142 3.5662998908278674 10.849689581857247 1 1 1569
1570 3 1.2989324281642514 2.8571536304525735 10.203217346962099 1 1 1570
1571 3 2.27313174928744 3.5662998908278674 10.849689581857247 1 1 1571
1572 3 1.948398642246377 2.8571536304525735 10.203217346962099 1 1 1572
1573 3 2.9225979633695656 3.5662998908278674 10.849689581857247 1 1 1573
1574 3 2.5978648563285027 2.8571536304525735 10.203217346962099 1 1 1574
1575 3 3.5720641774516912 3.5662998908278674 10.849689581857247 1 1 1575
1576 3 3.2473310704106284 2.8571536304525735 10.203217346962099 1 1 1576
1577 3 4.2215303915338165 3.5662998908278674 10.849689581857247 1 1 1577
1578 3 3.896797284492754 2.8571536304525735 10.203217346962099 1 1 1578
1579 3 4.870996605615943 3.5662998908278674 10.849689581857247 1 1 1579
1580 3 4.54626349857488 2.8571536304525735 10.203217346962099 1 1 1580
1581 3 5.520462819698068 3.5662998908278674 10.849689581857247 1 1 1581
1582 3 5.1957297126570055 2.8571536304525735 10.203217346962099 1 1 1582
1583 3 6.169929033780194 3.5662998908278674 10.849689581857247 1 1 1583
1584 3 5.845195926739131 2.8571536304525735 10.203217346962099 1 1 1584
1585 3 6.819395247862319 3.5662998908278674 10.849689581857247 1 1 1585
1586 3 6.494662140821257 2.8571536304525735 10.203217346962099 1 1 1586
1587 3 7.468861461944446 3.5662998908278674 10.849689581857247 1 1 1587
1588 3 7.1441283549033825 2.8571536304525735 10.203217346962099 1 1 1588
1589 3 8.11832767602657 3.5662998908278674 10.849689581857247 1 1 1589
1590 3 7.793594568985508 2.8571536304525735 10.203217346962099 1 1 1590
1591 3 8.767793890108697 3.5662998908278674 10.849689581857247 1 1 1591
1592 3 8.443060783067633 2.8571536304525735 10.203217346962099 1 1 1592
1593 3 9.417260104190822 3.5662998908278674 10.849689581857247 1 1 1593
1594 3 9.09252699714976 2.8571536304525735 10.203217346962099 1 1 1594
1595 3 10.066726318272949 3.5662998908278674 10.849689581857247 1 1 1595
1596 3 9.741993211231886 2.8571536304525735 10.203217346962099 1 1 1596
1597 3 10.716192532355073 3.5662998908278674 10.849689581857247 1 1 1597
1598 3 10.391459425314011 2.8571536304525735 10.203217346962099 1 1 1598
1599 3 11.3656587464372 3.5662998908278674 10.849689581857247 1 1 1599
1600 3 11.040925639396136 2.8571536304525735 10.203217346962099 1 1 1600
1601 3 12.015124960519325 3.5662998908278674 10.849689581857247 1 1 1601
1602 3 11.690391853478262 2.8571536304525735 10.203217346962099 1 1 1602
1603 3 12.664591174601451 3.5662998908278674 10.849689581857247 1 1 1603
1604 3 12.339858067560389 2.8571536304525735 10.203217346962099 1 1 1604
1605 3 13.314057388683576 3.5662998908278674 10.849689581857247 1 1 1605
1606 3 12.989324281642514 2.8571536304525735 10.203217346962099 1 1 1606
1607 3 13.963523602765703 3.5662998908278674 10.849689581857247 1 1 1607
1608 3 13.638790495724638 2.8571536304525735 10.203217346962099 1 1 1608
1609 3 14.612989816847827 3.5662998908278674 10.849689581857247 1 1 1609
1610 3 14.288256709806765 2.8571536304525735 10.203217346962099 1 1 1610
1611 3 15.262456030929954 3.5662998908278674 10.849689581857247 1 1 1611
1612 3 14.937722923888892 2.8571536304525735 10.203217346962099 1 1 1612
1613 3 15.911922245012079 3.5662998908278674 10.849689581857247 1 1 1613
1614 3 15.587189137971016 2.8571536304525735 10.203217346962099 1 1 1614
1615 3 16.561388459094204 3.5662998908278674 10.849689581857247 1 1 1615
1616 3 16.23665535205314 2.8571536304525735 10.203217346962099 1 1 1616
1617 3 17.210854673176332 3.5662998908278674 10.849689581857247 1 1 1617
1618 3 16.886121566135266 2.8571536304525735 10.203217346962099 1 1 1618
1619 3 17.860320887258457 3.5662998908278674 10.849689581857247 1 1 1619
1620 3 17.535587780217394 2.8571536304525735 10.203217346962099 1 1 1620
1621 3 18.50978710134058 3.5662998908278674 10.849689581857247 1 1 1621
1622 3 18.18505399429952 2.8571536304525735 10.203217346962099 1 1 1622
1623 3 19.159253315422706 3.5662998908278674 10.849689581857247 1 1 1623
1624 3 18.834520208381644 2.8571536304525735 10.203217346962099 1 1 1624
1625 3 19.808719529504835 3.5662998908278674 10.849689581857247 1 1 1625
1626 3 19.483986422463772 2.8571536304525735 10.203217346962099 1 1 1626
1627 3 20.45818574358696 3.5662998908278674 10.849689581857247 1 1 1627
1628 3 20.133452636545897 2.8571536304525735 10.203217346962099 1 1 1628
1629 3 21.107651957669084 3.5662998908278674 10.849689581857247 1 1 1629
1630 3 20.782918850628022 2.8571536304525735 10.203217346962099 1 1 1630
1631 3 21.75711817175121 3.5662998908278674 10.849689581857247 1 1 1631
1632 3 21.432385064710147 2.8571536304525735 10.203217346962099 1 1 1632
1633 3 0.32473310704106284 2.2788708942060065 9.43744724696225 1 1 1633
1634 3 0.0 1.8511444070973502 8.578456664173196 1 1 1634
1635 3 0.9741993211231885 2.2788708942060065 9.43744724696225 1 1 1635
1636 3 0.6494662140821257 1.8511444070973502 8.578456664173196 1 1 1636
1637 3 1.6236655352053142 2.2788708942060065 9.43744724696225 1 1 1637
1638 3 1.2989324281642514 1.8511444070973502 8.578456664173196 1 1 1638
1639 3 2.27313174928744 2.2788708942060065 9.43744724696225 1 1 1639
1640 3 1.948398642246377 1.8511444070973502 8.578456664173196 1 1 1640
1641 3 2.9225979633695656 2.2788708942060065 9.43744724696225 1 1 1641
1642 3 2.5978648563285027 1.8511444070973502 8.578456664173196 1 1 1642
1643 3 3.5720641774516912 2.2788708942060065 9.43744724696225 1 1 1643
1644 3 3.2473310704106284 1.8511444070973502 8.578456664173196 1 1 1644
1645 3 4.2215303915338165 2.2788708942060065 9.43744724696225 1 1 1645
1646 3 3.896797284492754 1.8511444070973502 8.578456664173196 1 1 1646
1647 3 4.870996605615943 2.2788708942060065 9.43744724696225 1 1 1647
1648 3 4.54626349857488 1.8511444070973502 8.578456664173196 1 1 1648
1649 3 5.520462819698068 2.2788708942060065 9.43744724696225 1 1 1649
1650 3 5.1957297126570055 1.8511444070973502 8.578456664173196 1 1 1650
1651 3 6.169929033780194 2.2788708942060065 9.43744724696225 1 1 1651
1652 3 5.845195926739131 1.8511444070973502 8.578456664173196 1 1 1652
1653 3 6.819395247862319 2.2788708942060065 9.43744724696225 1 1 1653
1654 3 6.494662140821257 1.8511444070973502 8.578456664173196 1 1 1654
1655 3 7.468861461944446 2.2788708942060065 9.43744724696225 1 1 1655
1656 3 7.1441283549033825 1.8511444070973502 8.578456664173196 1 1 1656
1657 3 8.11832767602657 2.2788708942060065 9.43744724696225 1 1 1657
1658 3 7.793594568985508 1.8511444070973502 8.578456664173196 1 1 1658
1659 3 8.767793890108697 2.2788708942060065 9.43744724696225 1 1 1659
1660 3 8.443060783067633 1.8511444070973502 8.578456664173196 1 1 1660
1661 3 9.417260104190822 2.2788708942060065 9.43744724696225 1 1 1661
1662 3 9.09252699714976 1.8511444070973502 8.578456664173196 1 1 1662
1663 3 10.066726318272949 2.2788708942060065 9.43744724696225 1 1 1663
1664 3 9.741993211231886 1.8511444070973502 8.578456664173196 1 1 1664
1665 3 10.716192532355073 2.2788708942060065 9.43744724696225 1 1 1665
1666 3 10.391459425314011 1.8511444070973502 8.578456664173196 1 1 1666
1667 3 11.3656587464372 2.2788708942060065 9.43744724696225 1 1 1667
1668 3 11.040925639396136 1.8511444070973502 8.578456664173196 1 1 1668
1669 3 12.015124960519325 2.2788708942060065 9.43744724696225 1 1 1669
1670 3 11.690391853478262 1.8511444070973502 8.578456664173196 1 1 1670
1671 3 12.664591174601451 2.2788708942060065 9.43744724696225 1 1 1671
1672 3 12.339858067560389 1.8511444070973502 8.578456664173196 1 1 1672
1673 3 13.314057388683576 2.2788708942060065 9.43744724696225 1 1 1673
1674 3 12.989324281642514 1.8511444070973502 8.578456664173196 1 1 1674
1675 3 13.963523602765703 2.2788708942060065 9.43744724696225 1 1 1675
1676 3 13.638790495724638 1.8511444070973502 8.578456664173196 1 1 1676
1677 3 14.612989816847827 2.2788708942060065 9.43744724696225 1 1 1677
1678 3 14.288256709806765 1.8511444070973502 8.578456664173196 1 1 1678
1679 3 15.262456030929954 2.2788708942060065 9.43744724696225 1 1 1679
1680 3 14.937722923888892 1.8511444070973502 8.578456664173196 1 1 1680
1681 3 15.911922245012079 2.2788708942060065 9.43744724696225 1 1 1681
1682 3 15.587189137971016 1.8511444070973502 8.578456664173196 1 1 1682
1683 3 16.561388459094204 2.2788708942060065 9.43744724696225 1 1 1683
1684 3 16.23665535205314 1.8511444070973502 8.578456664173196 1 1 1684
1685 3 17.210854673176332 2.2788708942060065 9.43744724696225 1 1 1685
1686 3 16.886121566135266 1.8511444070973502 8.578456664173196 1 1 1686
1687 3 17.860320887258457 2.2788708942060065 9.43744724696225 1 1 1687
1688 3 17.535587780217394 1.8511444070973502 8.578456664173196 1 1 1688
1689 3 18.50978710134058 2.2788708942060065 9.43744724696225 1 1 1689
1690 3 18.18505399429952 1.8511444070973502 8.578456664173196 1 1 1690
1691 3 19.159253315422706 2.2788708942060065 9.43744724696225 1 1 1691
1692 3 18.834520208381644 1.8511444070973502 8.578456664173196 1 1 1692
1693 3 19.808719529504835 2.2788708942060065 9.43744724696225 1 1 1693
1694 3 19.483986422463772 1.8511444070973502 8.578456664173196 1 1 1694
1695 3 20.45818574358696 2.2788708942060065 9.43744724696225 1 1 1695
1696 3 20.133452636545897 1.8511444070973502 8.578456664173196 1 1 1696
1697 3 21.107651957669084 2.2788708942060065 9.43744724696225 1 1 1697
1698 3 20.782918850628022 1.8511444070973502 8.578456664173196 1 1 1698
1699 3 21.75711817175121 2.2788708942060065 9.43744724696225 1 1 1699
1700 3 21.432385064710147 1.8511444070973502 8.578456664173196 1 1 1700
1701 3 0.32473310704106284 1.5885398816437108 7.655497492646166 1 1 1701
1702 3 0.0 1.5 6.700000000000001 1 1 1702
1703 3 0.9741993211231885 1.5885398816437108 7.655497492646166 1 1 1703
1704 3 0.6494662140821257 1.5 6.700000000000001 1 1 1704
1705 3 1.6236655352053142 1.5885398816437108 7.655497492646166 1 1 1705
1706 3 1.2989324281642514 1.5 6.700000000000001 1 1 1706
1707 3 2.27313174928744 1.5885398816437108 7.655497492646166 1 1 1707
1708 3 1.948398642246377 1.5 6.700000000000001 1 1 1708
1709 3 2.9225979633695656 1.5885398816437108 7.655497492646166 1 1 1709
1710 3 2.5978648563285027 1.5 6.700000000000001 1 1 1710
1711 3 3.5720641774516912 1.5885398816437108 7.655497492646166 1 1 1711
1712 3 3.2473310704106284 1.5 6.700000000000001 1 1 1712
1713 3 4.2215303915338165 1.5885398816437108 7.655497492646166 1 1 1713
1714 3 3.896797284492754 1.5 6.700000000000001 1 1 1714
1715 3 4.870996605615943 1.5885398816437108 7.655497492646166 1 1 1715
1716 3 4.54626349857488 1.5 6.700000000000001 1 1 1716
1717 3 5.520462819698068 1.5885398816437108 7.655497492646166 1 1 1717
1718 3 5.1957297126570055 1.5 6.700000000000001 1 1 1718
1719 3 6.169929033780194 1.5885398816437108 7.655497492646166 1 1 1719
1720 3 5.845195926739131 1.5 6.700000000000001 1 1 1720
1721 3 6.819395247862319 1.5885398816437108 7.655497492646166 1 1 1721
1722 3 6.494662140821257 1.5 6.700000000000001 1 1 1722
1723 3 7.468861461944446 1.5885398816437108 7.655497492646166 1 1 1723
1724 3 7.1441283549033825 1.5 6.700000000000001 1 1 1724
1725 3 8.11832767602657 1.5885398816437108 7.655497492646166 1 1 1725
1726 3 7.793594568985508 1.5 6.700000000000001 1 1 1726
1727 3 8.767793890108697 1.5885398816437108 7.655497492646166 1 1 1727
1728 3 8.443060783067633 1.5 6.700000000000001 1 1 1728
1729 3 9.417260104190822 1.5885398816437108 7.655497492646166 1 1 1729
1730 3 9.09252699714976 1.5 6.700000000000001 1 1 1730
1731 3 10.066726318272949 1.5885398816437108 7.655497492646166 1 1 1731
1732 3 9.741993211231886 1.5 6.700000000000001 1 1 1732
1733 3 10.716192532355073 1.5885398816437108 7.655497492646166 1 1 1733
1734 3 10.391459425314011 1.5 6.700000000000001 1 1 1734
1735 3 11.3656587464372 1.5885398816437108 7.655497492646166 1 1 1735
1736 3 11.040925639396136 1.5 6.700000000000001 1 1 1736
1737 3 12.015124960519325 1.5885398816437108 7.655497492646166 1 1 1737
1738 3 11.690391853478262 1.5 6.700000000000001 1 1 1738
1739 3 12.664591174601451 1.5885398816437108 7.655497492646166 1 1 1739
1740 3 12.339858067560389 1.5 6.700000000000001 1 1 1740
1741 3 13.314057388683576 1.5885398816437108 7.655497492646166 1 1 1741
1742 3 12.989324281642514 1.5 6.700000000000001 1 1 1742
1743 3 13.963523602765703 1.5885398816437108 7.655497492646166 1 1 1743
1744 3 13.638790495724638 1.5 6.700000000000001 1 1 1744
1745 3 14.612989816847827 1.5885398816437108 7.655497492646166 1 1 1745
1746 3 14.288256709806765 1.5 6.700000000000001 1 1 1746
1747 3 15.262456030929954 1.5885398816437108 7.655497492646166 1 1 1747
1748 3 14.937722923888892 1.5 6.700000000000001 1 1 1748
1749 3 15.911922245012079 1.5885398816437108 7.655497492646166 1 1 1749
1750 3 15.587189137971016 1.5 6.700000000000001 1 1 1750
1751 3 16.561388459094204 1.5885398816437108 7.655497492646166 1 1 1751
1752 3 16.23665535205314 1.5 6.700000000000001 1 1 1752
1753 3 17.210854673176332 1.5885398816437108 7.655497492646166 1 1 1753
1754 3 16.886121566135266 1.5 6.700000000000001 1 1 1754
1755 3 17.860320887258457 1.5885398816437108 7.655497492646166 1 1 1755
1756 3 17.535587780217394 1.5 6.700000000000001 1 1 1756
1757 3 18.50978710134058 1.5885398816437108 7.655497492646166 1 1 1757
1758 3 18.18505399429952 1.5 6.700000000000001 1 1 1758
1759 3 19.159253315422706 1.5885398816437108 7.655497492646166 1 1 1759
1760 3 18.834520208381644 1.5 6.700000000000001 1 1 1760
1761 3 19.808719529504835 1.5885398816437108 7.655497492646166 1 1 1761
1762 3 19.483986422463772 1.5 6.700000000000001 1 1 1762
1763 3 20.45818574358696 1.5885398816437108 7.655497492646166 1 1 1763
1764 3 20.133452636545897 1.5 6.700000000000001 1 1 1764
1765 3 21.107651957669084 1.5885398816437108 7.655497492646166 1 1 1765
1766 3 20.782918850628022 1.5 6.700000000000001 1 1 1766
1767 3 21.75711817175121 1.5885398816437108 7.655497492646166 1 1 1767
1768 3 21.432385064710147 1.5 6.700000000000001 1 1 1768
1769 3 0.32473310704106284 1.5885398816437108 5.744502507353835 1 1 1769
1770 3 0.0 1.8511444070973502 4.821543335826804 1 1 1770
1771 3 0.9741993211231885 1.5885398816437108 5.744502507353835 1 1 1771
1772 3 0.6494662140821257 1.8511444070973502 4.821543335826804 1 1 1772
1773 3 1.6236655352053142 1.5885398816437108 5.744502507353835 1 1 1773
1774 3 1.2989324281642514 1.8511444070973502 4.821543335826804 1 1 1774
1775 3 2.27313174928744 1.5885398816437108 5.744502507353835 1 1 1775
1776 3 1.948398642246377 1.8511444070973502 4.821543335826804 1 1 1776
1777 3 2.9225979633695656 1.5885398816437108 5.744502507353835 1 1 1777
1778 3 2.5978648563285027 1.8511444070973502 4.821543335826804 1 1 1778
1779 3 3.5720641774516912 1.5885398816437108 5.744502507353835 1 1 1779
1780 3 3.2473310704106284 1.8511444070973502 4.821543335826804 1 1 1780
1781 3 4.2215303915338165 1.5885398816437108 5.744502507353835 1 1 1781
1782 3 3.896797284492754 1.8511444070973502 4.821543335826804 1 1 1782
1783 3 4.870996605615943 1.5885398816437108 5.744502507353835 1 1 1783
1784 3 4.54626349857488 1.8511444070973502 4.821543335826804 1 1 1784
1785 3 5.520462819698068 1.5885398816437108 5.744502507353835 1 1 1785
1786 3 5.1957297126570055 1.8511444070973502 4.821543335826804 1 1 1786
1787 3 6.169929033780194 1.5885398816437108 5.744502507353835 1 1 1787
1788 3 5.845195926739131 1.8511444070973502 4.821543335826804 1 1 1788
1789 3 6.819395247862319 1.5885398816437108 5.744502507353835 1 1 1789
1790 3 6.494662140821257 1.8511444070973502 4.821543335826804 1 1 1790
1791 3 7.468861461944446 1.5885398816437108 5.744502507353835 1 1 1791
1792 3 7.1441283549033825 1.8511444070973502 4.821543335826804 1 1 1792
1793 3 8.11832767602657 1.5885398816437108 5.744502507353835 1 1 1793
1794 3 7.793594568985508 1.8511444070973502 4.821543335826804 1 1 1794
1795 3 8.767793890108697 1.5885398816437108 5.744502507353835 1 1 1795
1796 3 8.443060783067633 1.8511444070973502 4.821543335826804 1 1 1796
1797 3 9.417260104190822 1.5885398816437108 5.744502507353835 1 1 1797
1798 3 9.09252699714976 1.8511444070973502 4.821543335826804 1 1 1798
1799 3 10.066726318272949 1.5885398816437108 5.744502507353835 1 1 1799
1800 3 9.741993211231886 1.8511444070973502 4.821543335826804 1 1 1800
1801 3 10.716192532355073 1.5885398816437108 5.744502507353835 1 1 1801
1802 3 10.391459425314011 1.8511444070973502 4.821543335826804 1 1 1802
1803 3 11.3656587464372 1.5885398816437108 5.744502507353835 1 1 1803
1804 3 11.040925639396136 1.8511444070973502 4.821543335826804 1 1 1804
1805 3 12.015124960519325 1.5885398816437108 5.744502507353835 1 1 1805
1806 3 11.690391853478262 1.8511444070973502 4.821543335826804 1 1 1806
1807 3 12.664591174601451 1.5885398816437108 5.744502507353835 1 1 1807
1808 3 12.339858067560389 1.8511444070973502 4.821543335826804 1 1 1808
1809 3 13.314057388683576 1.5885398816437108 5.744502507353835 1 1 1809
1810 3 12.989324281642514 1.8511444070973502 4.821543335826804 1 1 1810
1811 3 13.963523602765703 1.5885398816437108 5.744502507353835 1 1 1811
1812 3 13.638790495724638 1.8511444070973502 4.821543335826804 1 1 1812
1813 3 14.612989816847827 1.5885398816437108 5.744502507353835 1 1 1813
1814 3 14.288256709806765 1.8511444070973502 4.821543335826804 1 1 1814
1815 3 15.262456030929954 1.5885398816437108 5.744502507353835 1 1 1815
1816 3 14.937722923888892 1.8511444070973502 4.821543335826804 1 1 1816
1817 3 15.911922245012079 1.5885398816437108 5.744502507353835 1 1 1817
1818 3 15.587189137971016 1.8511444070973502 4.821543335826804 1 1 1818
1819 3 16.561388459094204 1.5885398816437108 5.744502507353835 1 1 1819
1820 3 16.23665535205314 1.8511444070973502 4.821543335826804 1 1 1820
1821 3 17.210854673176332 1.5885398816437108 5.744502507353835 1 1 1821
1822 3 16.886121566135266 1.8511444070973502 4.821543335826804 1 1 1822
1823 3 17.860320887258457 1.5885398816437108 5.744502507353835 1 1 1823
1824 3 17.535587780217394 1.8511444070973502 4.821543335826804 1 1 1824
1825 3 18.50978710134058 1.5885398816437108 5.744502507353835 1 1 1825
1826 3 18.18505399429952 1.8511444070973502 4.821543335826804 1 1 1826
1827 3 19.159253315422706 1.5885398816437108 5.744502507353835 1 1 1827
1828 3 18.834520208381644 1.8511444070973502 4.821543335826804 1 1 1828
1829 3 19.808719529504835 1.5885398816437108 5.744502507353835 1 1 1829
1830 3 19.483986422463772 1.8511444070973502 4.821543335826804 1 1 1830
1831 3 20.45818574358696 1.5885398816437108 5.744502507353835 1 1 1831
1832 3 20.133452636545897 1.8511444070973502 4.821543335826804 1 1 1832
1833 3 21.107651957669084 1.5885398816437108 5.744502507353835 1 1 1833
1834 3 20.782918850628022 1.8511444070973502 4.821543335826804 1 1 1834
1835 3 21.75711817175121 1.5885398816437108 5.744502507353835 1 1 1835
1836 3 21.432385064710147 1.8511444070973502 4.821543335826804 1 1 1836
1837 3 0.32473310704106284 2.2788708942060065 3.9625527530377496 1 1 1837
1838 3 0.0 2.8571536304525726 3.1967826530379027 1 1 1838
1839 3 0.9741993211231885 2.2788708942060065 3.9625527530377496 1 1 1839
1840 3 0.6494662140821257 2.8571536304525726 3.1967826530379027 1 1 1840
1841 3 1.6236655352053142 2.2788708942060065 3.9625527530377496 1 1 1841
1842 3 1.2989324281642514 2.8571536304525726 3.1967826530379027 1 1 1842
1843 3 2.27313174928744 2.2788708942060065 3.9625527530377496 1 1 1843
1844 3 1.948398642246377 2.8571536304525726 3.1967826530379027 1 1 1844
1845 3 2.9225979633695656 2.2788708942060065 3.9625527530377496 1 1 1845
1846 3 2.5978648563285027 2.8571536304525726 3.1967826530379027 1 1 1846
1847 3 3.5720641774516912 2.2788708942060065 3.9625527530377496 1 1 1847
1848 3 3.2473310704106284 2.8571536304525726 3.1967826530379027 1 1 1848
1849 3 4.2215303915338165 2.2788708942060065 3.9625527530377496 1 1 1849
1850 3 3.896797284492754 2.8571536304525726 3.1967826530379027 1 1 1850
1851 3 4.870996605615943 2.2788708942060065 3.9625527530377496 1 1 1851
1852 3 4.54626349857488 2.8571536304525726 3.1967826530379027 1 1 1852
1853 3 5.520462819698068 2.2788708942060065 3.9625527530377496 1 1 1853
1854 3 5.1957297126570055 2.8571536304525726 3.1967826530379027 1 1 1854
1855 3 6.169929033780194 2.2788708942060065 3.9625527530377496 1 1 1855
1856 3 5.845195926739131 2.8571536304525726 3.1967826530379027 1 1 1856
1857 3 6.819395247862319 2.2788708942060065 3.9625527530377496 1 1 1857
1858 3 6.494662140821257 2.8571536304525726 3.1967826530379027 1 1 1858
1859 3 7.468861461944446 2.2788708942060065 3.9625527530377496 1 1 1859
1860 3 7.1441283549033825 2.8571536304525726 3.1967826530379027 1 1 1860
1861 3 8.11832767602657 2.2788708942060065 3.9625527530377496 1 1 1861
1862 3 7.793594568985508 2.8571536304525726 3.1967826530379027 1 1 1862
1863 3 8.767793890108697 2.2788708942060065 3.9625527530377496 1 1 1863
1864 3 8.443060783067633 2.8571536304525726 3.1967826530379027 1 1 1864
1865 3 9.417260104190822 2.2788708942060065 3.9625527530377496 1 1 1865
1866 3 9.09252699714976 2.8571536304525726 3.1967826530379027 1 1 1866
1867 3 10.066726318272949 2.2788708942060065 3.9625527530377496 1 1 1867
1868 3 9.741993211231886 2.8571536304525726 3.1967826530379027 1 1 1868
1869 3 10.716192532355073 2.2788708942060065 3.9625527530377496 1 1 1869
1870 3 10.391459425314011 2.8571536304525726 3.1967826530379027 1 1 1870
1871 3 11.3656587464372 2.2788708942060065 3.9625527530377496 1 1 1871
1872 3 11.040925639396136 2.8571536304525726 3.1967826530379027 1 1 1872
1873 3 12.015124960519325 2.2788708942060065 3.9625527530377496 1 1 1873
1874 3 11.690391853478262 2.8571536304525726 3.1967826530379027 1 1 1874
1875 3 12.664591174601451 2.2788708942060065 3.9625527530377496 1 1 1875
1876 3 12.339858067560389 2.8571536304525726 3.1967826530379027 1 1 1876
1877 3 13.314057388683576 2.2788708942060065 3.9625527530377496 1 1 1877
1878 3 12.989324281642514 2.8571536304525726 3.1967826530379027 1 1 1878
1879 3 13.963523602765703 2.2788708942060065 3.9625527530377496 1 1 1879
1880 3 13.638790495724638 2.8571536304525726 3.1967826530379027 1 1 1880
1881 3 14.612989816847827 2.2788708942060065 3.9625527530377496 1 1 1881
1882 3 14.288256709806765 2.8571536304525726 3.1967826530379027 1 1 1882
1883 3 15.262456030929954 2.2788708942060065 3.9625527530377496 1 1 1883
1884 3 14.937722923888892 2.8571536304525726 3.1967826530379027 1 1 1884
1885 3 15.911922245012079 2.2788708942060065 3.9625527530377496 1 1 1885
1886 3 15.587189137971016 2.8571536304525726 3.1967826530379027 1 1 1886
1887 3 16.561388459094204 2.2788708942060065 3.9625527530377496 1 1 1887
1888 3 16.23665535205314 2.8571536304525726 3.1967826530379027 1 1 1888
1889 3 17.210854673176332 2.2788708942060065 3.9625527530377496 1 1 1889
1890 3 16.886121566135266 2.8571536304525726 3.1967826530379027 1 1 1890
1891 3 17.860320887258457 2.2788708942060065 3.9625527530377496 1 1 1891
1892 3 17.535587780217394 2.8571536304525726 3.1967826530379027 1 1 1892
1893 3 18.50978710134058 2.2788708942060065 3.9625527530377496 1 1 1893
1894 3 18.18505399429952 2.8571536304525726 3.1967826530379027 1 1 1894
1895 3 19.159253315422706 2.2788708942060065 3.9625527530377496 1 1 1895
1896 3 18.834520208381644 2.8571536304525726 3.1967826530379027 1 1 1896
1897 3 19.808719529504835 2.2788708942060065 3.9625527530377496 1 1 1897
1898 3 19.483986422463772 2.8571536304525726 3.1967826530379027 1 1 1898
1899 3 20.45818574358696 2.2788708942060065 3.9625527530377496 1 1 1899
1900 3 20.133452636545897 2.8571536304525726 3.1967826530379027 1 1 1900
1901 3 21.107651957669084 2.2788708942060065 3.9625527530377496 1 1 1901
1902 3 20.782918850628022 2.8571536304525726 3.1967826530379027 1 1 1902
1903 3 21.75711817175121 2.2788708942060065 3.9625527530377496 1 1 1903
1904 3 21.432385064710147 2.8571536304525726 3.1967826530379027 1 1 1904
1905 3 0.32473310704106284 3.566299890827866 2.5503104181427547 1 1 1905
1906 3 0.0 4.382160549962002 2.0451508849536753 1 1 1906
1907 3 0.9741993211231885 3.566299890827866 2.5503104181427547 1 1 1907
1908 3 0.6494662140821257 4.382160549962002 2.0451508849536753 1 1 1908
1909 3 1.6236655352053142 3.566299890827866 2.5503104181427547 1 1 1909
1910 3 1.2989324281642514 4.382160549962002 2.0451508849536753 1 1 1910
1911 3 2.27313174928744 3.566299890827866 2.5503104181427547 1 1 1911
1912 3 1.948398642246377 4.382160549962002 2.0451508849536753 1 1 1912
1913 3 2.9225979633695656 3.566299890827866 2.5503104181427547 1 1 1913
1914 3 2.5978648563285027 4.382160549962002 2.0451508849536753 1 1 1914
1915 3 3.5720641774516912 3.566299890827866 2.5503104181427547 1 1 1915
1916 3 3.2473310704106284 4.382160549962002 2.0451508849536753 1 1 1916
1917 3 4.2215303915338165 3.566299890827866 2.5503104181427547 1 1 1917
1918 3 3.896797284492754 4.382160549962002 2.0451508849536753 1 1 1918
1919 3 4.870996605615943 3.566299890827866 2.5503104181427547 1 1 1919
1920 3 4.54626349857488 4.382160549962002 2.0451508849536753 1 1 1920
1921 3 5.520462819698068 3.566299890827866 2.5503104181427547 1 1 1921
1922 3 5.1957297126570055 4.382160549962002 2.0451508849536753 1 1 1922
1923 3 6.169929033780194 3.566299890827866 2.5503104181427547 1 1 1923
1924 3 5.845195926739131 4.382160549962002 2.0451508849536753 1 1 1924
1925 3 6.819395247862319 3.566299890827866 2.5503104181427547 1 1 1925
1926 3 6.494662140821257 4.382160549962002 2.0451508849536753 1 1 1926
1927 3 7.468861461944446 3.566299890827866 2.5503104181427547 1 1 1927
1928 3 7.1441283549033825 4.382160549962002 2.0451508849536753 1 1 1928
1929 3 8.11832767602657 3.566299890827866 2.5503104181427547 1 1 1929
1930 3 7.793594568985508 4.382160549962002 2.0451508849536753 1 1 1930
1931 3 8.767793890108697 3.566299890827866 2.5503104181427547 1 1 1931
1932 3 8.443060783067633 4.382160549962002 2.0451508849536753 1 1 1932
1933 3 9.417260104190822 3.566299890827866 2.5503104181427547 1 1 1933
1934 3 9.09252699714976 4.382160549962002 2.0451508849536753 1 1 1934
1935 3 10.066726318272949 3.566299890827866 2.5503104181427547 1 1 1935
1936 3 9.741993211231886 4.382160549962002 2.0451508849536753 1 1 1936
1937 3 10.716192532355073 3.566299890827866 2.5503104181427547 1 1 1937
1938 3 10.391459425314011 4.382160549962002 2.0451508849536753 1 1 1938
1939 3 11.3656587464372 3.566299890827866 2.5503104181427547 1 1 1939
1940 3 11.040925639396136 4.382160549962002 2.0451508849536753 1 1 1940
1941 3 12.015124960519325 3.566299890827866 2.5503104181427547 1 1 1941
1942 3 11.690391853478262 4.382160549962002 2.0451508849536753 1 1 1942
1943 3 12.664591174601451 3.566299890827866 2.5503104181427547 1 1 1943
1944 3 12.339858067560389 4.382160549962002 2.0451508849536753 1 1 1944
1945 3 13.314057388683576 3.566299890827866 2.5503104181427547 1 1 1945
1946 3 12.989324281642514 4.382160549962002 2.0451508849536753 1 1 1946
1947 3 13.963523602765703 3.566299890827866 2.5503104181427547 1 1 1947
1948 3 13.638790495724638 4.382160549962002 2.0451508849536753 1 1 1948
1949 3 14.612989816847827 3.566299890827866 2.5503104181427547 1 1 1949
1950 3 14.288256709806765 4.382160549962002 2.0451508849536753 1 1 1950
1951 3 15.262456030929954 3.566299890827866 2.5503104181427547 1 1 1951
1952 3 14.937722923888892 4.382160549962002 2.0451508849536753 1 1 1952
1953 3 15.911922245012079 3.566299890827866 2.5503104181427547 1 1 1953
1954 3 15.587189137971016 4.382160549962002 2.0451508849536753 1 1 1954
1955 3 16.561388459094204 3.566299890827866 2.5503104181427547 1 1 1955
1956 3 16.23665535205314 4.382160549962002 2.0451508849536753 1 1 1956
1957 3 17.210854673176332 3.566299890827866 2.5503104181427547 1 1 1957
1958 3 16.886121566135266 4.382160549962002 2.0451508849536753 1 1 1958
1959 3 17.860320887258457 3.566299890827866 2.5503104181427547 1 1 1959
1960 3 17.535587780217394 4.382160549962002 2.0451508849536753 1 1 1960
1961 3 18.50978710134058 3.566299890827866 2.5503104181427547 1 1 1961
1962 3 18.18505399429952 4.382160549962002 2.0451508849536753 1 1 1962
1963 3 19.159253315422706 3.566299890827866 2.5503104181427547 1 1 1963
1964 3 18.834520208381644 4.382160549962002 2.0451508849536753 1 1 1964
1965 3 19.808719529504835 3.566299890827866 2.5503104181427547 1 1 1965
1966 3 19.483986422463772 4.382160549962002 2.0451508849536753 1 1 1966
1967 3 20.45818574358696 3.566299890827866 2.5503104181427547 1 1 1967
1968 3 20.133452636545897 4.382160549962002 2.0451508849536753 1 1 1968
1969 3 21.107651957669084 3.566299890827866 2.5503104181427547 1 1 1969
1970 3 20.782918850628022 4.382160549962002 2.0451508849536753 1 1 1970
1971 3 21.75711817175121 3.566299890827866 2.5503104181427547 1 1 1971
1972 3 21.432385064710147 4.382160549962002 2.0451508849536753 1 1 1972
1973 3 0.32473310704106284 5.276952451625168 1.6985066555013413 1 1 1973
1974 3 0.0 6.22020453079083 1.5221822832658205 1 1 1974
1975 3 0.9741993211231885 5.276952451625168 1.6985066555013413 1 1 1975
1976 3 0.6494662140821257 6.22020453079083 1.5221822832658205 1 1 1976
1977 3 1.6236655352053142 5.276952451625168 1.6985066555013413 1 1 1977
1978 3 1.2989324281642514 6.22020453079083 1.5221822832658205 1 1 1978
1979 3 2.27313174928744 5.276952451625168 1.6985066555013413 1 1 1979
1980 3 1.948398642246377 6.22020453079083 1.5221822832658205 1 1 1980
1981 3 2.9225979633695656 5.276952451625168 1.6985066555013413 1 1 1981
1982 3 2.5978648563285027 6.22020453079083 1.5221822832658205 1 1 1982
1983 3 3.5720641774516912 5.276952451625168 1.6985066555013413 1 1 1983
1984 3 3.2473310704106284 6.22020453079083 1.5221822832658205 1 1 1984
1985 3 4.2215303915338165 5.276952451625168 1.6985066555013413 1 1 1985
1986 3 3.896797284492754 6.22020453079083 1.5221822832658205 1 1 1986
1987 3 4.870996605615943 5.276952451625168 1.6985066555013413 1 1 1987
1988 3 4.54626349857488 6.22020453079083 1.5221822832658205 1 1 1988
1989 3 5.520462819698068 5.276952451625168 1.6985066555013413 1 1 1989
1990 3 5.1957297126570055 6.22020453079083 1.5221822832658205 1 1 1990
1991 3 6.169929033780194 5.276952451625168 1.6985066555013413 1 1 1991
1992 3 5.845195926739131 6.22020453079083 1.5221822832658205 1 1 1992
1993 3 6.819395247862319 5.276952451625168 1.6985066555013413 1 1 1993
1994 3 6.494662140821257 6.22020453079083 1.5221822832658205 1 1 1994
1995 3 7.468861461944446 5.276952451625168 1.6985066555013413 1 1 1995
1996 3 7.1441283549033825 6.22020453079083 1.5221822832658205 1 1 1996
1997 3 8.11832767602657 5.276952451625168 1.6985066555013413 1 1 1997
1998 3 7.793594568985508 6.22020453079083 1.5221822832658205 1 1 1998
1999 3 8.767793890108697 5.276952451625168 1.6985066555013413 1 1 1999
2000 3 8.443060783067633 6.22020453079083 1.5221822832658205 1 1 2000
2001 3 9.417260104190822 5.276952451625168 1.6985066555013413 1 1 2001
2002 3 9.09252699714976 6.22020453079083 1.5221822832658205 1 1 2002
2003 3 10.066726318272949 5.276952451625168 1.6985066555013413 1 1 2003
2004 3 9.741993211231886 6.22020453079083 1.5221822832658205 1 1 2004
2005 3 10.716192532355073 5.276952451625168 1.6985066555013413 1 1 2005
2006 3 10.391459425314011 6.22020453079083 1.5221822832658205 1 1 2006
2007 3 11.3656587464372 5.276952451625168 1.6985066555013413 1 1 2007
2008 3 11.040925639396136 6.22020453079083 1.5221822832658205 1 1 2008
2009 3 12.015124960519325 5.276952451625168 1.6985066555013413 1 1 2009
2010 3 11.690391853478262 6.22020453079083 1.5221822832658205 1 1 2010
2011 3 12.664591174601451 5.276952451625168 1.6985066555013413 1 1 2011
2012 3 12.339858067560389 6.22020453079083 1.5221822832658205 1 1 2012
2013 3 13.314057388683576 5.276952451625168 1.6985066555013413 1 1 2013
2014 3 12.989324281642514 6.22020453079083 1.5221822832658205 1 1 2014
2015 3 13.963523602765703 5.276952451625168 1.6985066555013413 1 1 2015
2016 3 13.638790495724638 6.22020453079083 1.5221822832658205 1 1 2016
2017 3 14.612989816847827 5.276952451625168 1.6985066555013413 1 1 2017
2018 3 14.288256709806765 6.22020453079083 1.5221822832658205 1 1 2018
2019 3 15.262456030929954 5.276952451625168 1.6985066555013413 1 1 2019
2020 3 14.937722923888892 6.22020453079083 1.5221822832658205 1 1 2020
2021 3 15.911922245012079 5.276952451625168 1.6985066555013413 1 1 2021
2022 3 15.587189137971016 6.22020453079083 1.5221822832658205 1 1 2022
2023 3 16.561388459094204 5.276952451625168 1.6985066555013413 1 1 2023
2024 3 16.23665535205314 6.22020453079083 1.5221822832658205 1 1 2024
2025 3 17.210854673176332 5.276952451625168 1.6985066555013413 1 1 2025
2026 3 16.886121566135266 6.22020453079083 1.5221822832658205 1 1 2026
2027 3 17.860320887258457 5.276952451625168 1.6985066555013413 1 1 2027
2028 3 17.535587780217394 6.22020453079083 1.5221822832658205 1 1 2028
2029 3 18.50978710134058 5.276952451625168 1.6985066555013413 1 1 2029
2030 3 18.18505399429952 6.22020453079083 1.5221822832658205 1 1 2030
2031 3 19.159253315422706 5.276952451625168 1.6985066555013413 1 1 2031
2032 3 18.834520208381644 6.22020453079083 1.5221822832658205 1 1 2032
2033 3 19.808719529504835 5.276952451625168 1.6985066555013413 1 1 2033
2034 3 19.483986422463772 6.22020453079083 1.5221822832658205 1 1 2034
2035 3 20.45818574358696 5.276952451625168 1.6985066555013413 1 1 2035
2036 3 20.133452636545897 6.22020453079083 1.5221822832658205 1 1 2036
2037 3 21.107651957669084 5.276952451625168 1.6985066555013413 1 1 2037
2038 3 20.782918850628022 6.22020453079083 1.5221822832658205 1 1 2038
2039 3 21.75711817175121 5.276952451625168 1.6985066555013413 1 1 2039
2040 3 21.432385064710147 6.22020453079083 1.5221822832658205 1 1 2040
2041 3 0.32473310704106284 7.179795469209168 1.5221822832658205 1 1 2041
2042 3 0.0 8.123047548374831 1.6985066555013413 1 1 2042
2043 3 0.9741993211231885 7.179795469209168 1.5221822832658205 1 1 2043
2044 3 0.6494662140821257 8.123047548374831 1.6985066555013413 1 1 2044
2045 3 1.6236655352053142 7.179795469209168 1.5221822832658205 1 1 2045
2046 3 1.2989324281642514 8.123047548374831 1.6985066555013413 1 1 2046
2047 3 2.27313174928744 7.179795469209168 1.5221822832658205 1 1 2047
2048 3 1.948398642246377 8.123047548374831 1.6985066555013413 1 1 2048
2049 3 2.9225979633695656 7.179795469209168 1.5221822832658205 1 1 2049
2050 3 2.5978648563285027 8.123047548374831 1.6985066555013413 1 1 2050
2051 3 3.5720641774516912 7.179795469209168 1.5221822832658205 1 1 2051
2052 3 3.2473310704106284 8.123047548374831 1.6985066555013413 1 1 2052
2053 3 4.2215303915338165 7.179795469209168 1.5221822832658205 1 1 2053
2054 3 3.896797284492754 8.123047548374831 1.6985066555013413 1 1 2054
2055 3 4.870996605615943 7.179795469209168 1.5221822832658205 1 1 2055
2056 3 4.54626349857488 8.123047548374831 1.6985066555013413 1 1 2056
2057 3 5.520462819698068 7.179795469209168 1.5221822832658205 1 1 2057
2058 3 5.1957297126570055 8.123047548374831 1.6985066555013413 1 1 2058
2059 3 6.169929033780194 7.179795469209168 1.5221822832658205 1 1 2059
2060 3 5.845195926739131 8.123047548374831 1.6985066555013413 1 1 2060
2061 3 6.819395247862319 7.179795469209168 1.5221822832658205 1 1 2061
2062 3 6.494662140821257 8.123047548374831 1.6985066555013413 1 1 2062
2063 3 7.468861461944446 7.179795469209168 1.5221822832658205 1 1 2063
2064 3 7.1441283549033825 8.123047548374831 1.6985066555013413 1 1 2064
2065 3 8.11832767602657 7.179795469209168 1.5221822832658205 1 1 2065
2066 3 7.793594568985508 8.123047548374831 1.6985066555013413 1 1 2066
2067 3 8.767793890108697 7.179795469209168 1.5221822832658205 1 1 2067
2068 3 8.443060783067633 8.123047548374831 1.6985066555013413 1 1 2068
2069 3 9.417260104190822 7.179795469209168 1.5221822832658205 1 1 2069
2070 3 9.09252699714976 8.123047548374831 1.6985066555013413 1 1 2070
2071 3 10.066726318272949 7.179795469209168 1.5221822832658205 1 1 2071
2072 3 9.741993211231886 8.123047548374831 1.6985066555013413 1 1 2072
2073 3 10.716192532355073 7.179795469209168 1.5221822832658205 1 1 2073
2074 3 10.391459425314011 8.123047548374831 1.6985066555013413 1 1 2074
2075 3 11.3656587464372 7.179795469209168 1.5221822832658205 1 1 2075
2076 3 11.040925639396136 8.123047548374831 1.6985066555013413 1 1 2076
2077 3 12.015124960519325 7.179795469209168 1.5221822832658205 1 1 2077
2078 3 11.690391853478262 8.123047548374831 1.6985066555013413 1 1 2078
2079 3 12.664591174601451 7.179795469209168 1.5221822832658205 1 1 2079
2080 3 12.339858067560389 8.123047548374831 1.6985066555013413 1 1 2080
2081 3 13.314057388683576 7.179795469209168 1.5221822832658205 1 1 2081
2082 3 12.989324281642514 8.123047548374831 1.6985066555013413 1 1 2082
2083 3 13.963523602765703 7.179795469209168 1.5221822832658205 1 1 2083
2084 3 13.638790495724638 8.123047548374831 1.6985066555013413 1 1 2084
2085 3 14.612989816847827 7.179795469209168 1.5221822832658205 1 1 2085
2086 3 14.288256709806765 8.123047548374831 1.6985066555013413 1 1 2086
2087 3 15.262456030929954 7.179795469209168 1.5221822832658205 1 1 2087
2088 3 14.937722923888892 8.123047548374831 1.6985066555013413 1 1 2088
2089 3 15.911922245012079 7.179795469209168 1.5221822832658205 1 1 2089
2090 3 15.587189137971016 8.123047548374831 1.6985066555013413 1 1 2090
2091 3 16.561388459094204 7.179795469209168 1.5221822832658205 1 1 2091
2092 3 16.23665535205314 8.123047548374831 1.6985066555013413 1 1 2092
2093 3 17.210854673176332 7.179795469209168 1.5221822832658205 1 1 2093
2094 3 16.886121566135266 8.123047548374831 1.6985066555013413 1 1 2094
2095 3 17.860320887258457 7.179795469209168 1.5221822832658205 1 1 2095
2096 3 17.535587780217394 8.123047548374831 1.6985066555013413 1 1 2096
2097 3 18.50978710134058 7.179795469209168 1.5221822832658205 1 1 2097
2098 3 18.18505399429952 8.123047548374831 1.6985066555013413 1 1 2098
2099 3 19.159253315422706 7.179795469209168 1.5221822832658205 1 1 2099
2100 3 18.834520208381644 8.123047548374831 1.6985066555013413 1 1 2100
2101 3 19.808719529504835 7.179795469209168 1.5221822832658205 1 1 2101
2102 3 19.483986422463772 8.123047548374831 1.6985066555013413 1 1 2102
2103 3 20.45818574358696 7.179795469209168 1.5221822832658205 1 1 2103
2104 3 20.133452636545897 8.123047548374831 1.6985066555013413 1 1 2104
2105 3 21.107651957669084 7.179795469209168 1.5221822832658205 1 1 2105
2106 3 20.782918850628022 8.123047548374831 1.6985066555013413 1 1 2106
2107 3 21.75711817175121 7.179795469209168 1.5221822832658205 1 1 2107
2108 3 21.432385064710147 8.123047548374831 1.6985066555013413 1 1 2108
2109 3 0.32473310704106284 9.017839450038 2.045150884953676 1 1 2109
2110 3 0.0 9.833700109172133 2.550310418142754 1 1 2110
2111 3 0.9741993211231885 9.017839450038 2.045150884953676 1 1 2111
2112 3 0.6494662140821257 9.833700109172133 2.550310418142754 1 1 2112
2113 3 1.6236655352053142 9.017839450038 2.045150884953676 1 1 2113
2114 3 1.2989324281642514 9.833700109172133 2.550310418142754 1 1 2114
2115 3 2.27313174928744 9.017839450038 2.045150884953676 1 1 2115
2116 3 1.948398642246377 9.833700109172133 2.550310418142754 1 1 2116
2117 3 2.9225979633695656 9.017839450038 2.045150884953676 1 1 2117
2118 3 2.5978648563285027 9.833700109172133 2.550310418142754 1 1 2118
2119 3 3.5720641774516912 9.017839450038 2.045150884953676 1 1 2119
2120 3 3.2473310704106284 9.833700109172133 2.550310418142754 1 1 2120
2121 3 4.2215303915338165 9.017839450038 2.045150884953676 1 1 2121
2122 3 3.896797284492754 9.833700109172133 2.550310418142754 1 1 2122
2123 3 4.870996605615943 9.017839450038 2.045150884953676 1 1 2123
2124 3 4.54626349857488 9.833700109172133 2.550310418142754 1 1 2124
2125 3 5.520462819698068 9.017839450038 2.045150884953676 1 1 2125
2126 3 5.1957297126570055 9.833700109172133 2.550310418142754 1 1 2126
2127 3 6.169929033780194 9.017839450038 2.045150884953676 1 1 2127
2128 3 5.845195926739131 9.833700109172133 2.550310418142754 1 1 2128
2129 3 6.819395247862319 9.017839450038 2.045150884953676 1 1 2129
2130 3 6.494662140821257 9.833700109172133 2.550310418142754 1 1 2130
2131 3 7.468861461944446 9.017839450038 2.045150884953676 1 1 2131
2132 3 7.1441283549033825 9.833700109172133 2.550310418142754 1 1 2132
2133 3 8.11832767602657 9.017839450038 2.045150884953676 1 1 2133
2134 3 7.793594568985508 9.833700109172133 2.550310418142754 1 1 2134
2135 3 8.767793890108697 9.017839450038 2.045150884953676 1 1 2135
2136 3 8.443060783067633 9.833700109172133 2.550310418142754 1 1 2136
2137 3 9.417260104190822 9.017839450038 2.045150884953676 1 1 2137
2138 3 9.09252699714976 9.833700109172133 2.550310418142754 1 1 2138
2139 3 10.066726318272949 9.017839450038 2.045150884953676 1 1 2139
2140 3 9.741993211231886 9.833700109172133 2.550310418142754 1 1 2140
2141 3 10.716192532355073 9.017839450038 2.045150884953676 1 1 2141
2142 3 10.391459425314011 9.833700109172133 2.550310418142754 1 1 2142
2143 3 11.3656587464372 9.017839450038 2.045150884953676 1 1 2143
2144 3 11.040925639396136 9.833700109172133 2.550310418142754 1 1 2144
2145 3 12.015124960519325 9.017839450038 2.045150884953676 1 1 2145
2146 3 11.690391853478262 9.833700109172133 2.550310418142754 1 1 2146
2147 3 12.664591174601451 9.017839450038 2.045150884953676 1 1 2147
2148 3 12.339858067560389 9.833700109172133 2.550310418142754 1 1 2148
2149 3 13.314057388683576 9.017839450038 2.045150884953676 1 1 2149
2150 3 12.989324281642514 9.833700109172133 2.550310418142754 1 1 2150
2151 3 13.963523602765703 9.017839450038 2.045150884953676 1 1 2151
2152 3 13.638790495724638 9.833700109172133 2.550310418142754 1 1 2152
2153 3 14.612989816847827 9.017839450038 2.045150884953676 1 1 2153
2154 3 14.288256709806765 9.833700109172133 2.550310418142754 1 1 2154
2155 3 15.262456030929954 9.017839450038 2.045150884953676 1 1 2155
2156 3 14.937722923888892 9.833700109172133 2.550310418142754 1 1 2156
2157 3 15.911922245012079 9.017839450038 2.045150884953676 1 1 2157
2158 3 15.587189137971016 9.833700109172133 2.550310418142754 1 1 2158
2159 3 16.561388459094204 9.017839450038 2.045150884953676 1 1 2159
2160 3 16.23665535205314 9.833700109172133 2.550310418142754 1 1 2160
2161 3 17.210854673176332 9.017839450038 2.045150884953676 1 1 2161
2162 3 16.886121566135266 9.833700109172133 2.550310418142754 1 1 2162
2163 3 17.860320887258457 9.017839450038 2.045150884953676 1 1 2163
2164 3 17.535587780217394 9.833700109172133 2.550310418142754 1 1 2164
2165 3 18.50978710134058 9.017839450038 2.045150884953676 1 1 2165
2166 3 18.18505399429952 9.833700109172133 2.550310418142754 1 1 2166
2167 3 19.159253315422706 9.017839450038 2.045150884953676 1 1 2167
2168 3 18.834520208381644 9.833700109172133 2.550310418142754 1 1 2168
2169 3 19.808719529504835 9.017839450038 2.045150884953676 1 1 2169
2170 3 19.483986422463772 9.833700109172133 2.550310418142754 1 1 2170
2171 3 20.45818574358696 9.017839450038 2.045150884953676 1 1 2171
2172 3 20.133452636545897 9.833700109172133 2.550310418142754 1 1 2172
2173 3 21.107651957669084 9.017839450038 2.045150884953676 1 1 2173
2174 3 20.782918850628022 9.833700109172133 2.550310418142754 1 1 2174
2175 3 21.75711817175121 9.017839450038 2.045150884953676 1 1 2175
2176 3 21.432385064710147 9.833700109172133 2.550310418142754 1 1 2176
2177 3 0.32473310704106284 10.542846369547428 3.196782653037903 1 1 2177
2178 3 0.0 11.121129105793994 3.962552753037748 1 1 2178
2179 3 0.9741993211231885 10.542846369547428 3.196782653037903 1 1 2179
2180 3 0.6494662140821257 11.121129105793994 3.962552753037748 1 1 2180
2181 3 1.6236655352053142 10.542846369547428 3.196782653037903 1 1 2181
2182 3 1.2989324281642514 11.121129105793994 3.962552753037748 1 1 2182
2183 3 2.27313174928744 10.542846369547428 3.196782653037903 1 1 2183
2184 3 1.948398642246377 11.121129105793994 3.962552753037748 1 1 2184
2185 3 2.9225979633695656 10.542846369547428 3.196782653037903 1 1 2185
2186 3 2.5978648563285027 11.121129105793994 3.962552753037748 1 1 2186
2187 3 3.5720641774516912 10.542846369547428 3.196782653037903 1 1 2187
2188 3 3.2473310704106284 11.121129105793994 3.962552753037748 1 1 2188
2189 3 4.2215303915338165 10.542846369547428 3.196782653037903 1 1 2189
2190 3 3.896797284492754 11.121129105793994 3.962552753037748 1 1 2190
2191 3 4.870996605615943 10.542846369547428 3.196782653037903 1 1 2191
2192 3 4.54626349857488 11.121129105793994 3.962552753037748 1 1 2192
2193 3 5.520462819698068 10.542846369547428 3.196782653037903 1 1 2193
2194 3 5.1957297126570055 11.121129105793994 3.962552753037748 1 1 2194
2195 3 6.169929033780194 10.542846369547428 3.196782653037903 1 1 2195
2196 3 5.845195926739131 11.121129105793994 3.962552753037748 1 1 2196
2197 3 6.819395247862319 10.542846369547428 3.196782653037903 1 1 2197
2198 3 6.494662140821257 11.121129105793994 3.962552753037748 1 1 2198
2199 3 7.468861461944446 10.542846369547428 3.196782653037903 1 1 2199
2200 3 7.1441283549033825 11.121129105793994 3.962552753037748 1 1 2200
2201 3 8.11832767602657 10.542846369547428 3.196782653037903 1 1 2201
2202 3 7.793594568985508 11.121129105793994 3.962552753037748 1 1 2202
2203 3 8.767793890108697 10.542846369547428 3.196782653037903 1 1 2203
2204 3 8.443060783067633 11.121129105793994 3.962552753037748 1 1 2204
2205 3 9.417260104190822 10.542846369547428 3.196782653037903 1 1 2205
2206 3 9.09252699714976 11.121129105793994 3.962552753037748 1 1 2206
2207 3 10.066726318272949 10.542846369547428 3.196782653037903 1 1 2207
2208 3 9.741993211231886 11.121129105793994 3.962552753037748 1 1 2208
2209 3 10.716192532355073 10.542846369547428 3.196782653037903 1 1 2209
2210 3 10.391459425314011 11.121129105793994 3.962552753037748 1 1 2210
2211 3 11.3656587464372 10.542846369547428 3.196782653037903 1 1 2211
2212 3 11.040925639396136 11.121129105793994 3.962552753037748 1 1 2212
2213 3 12.015124960519325 10.542846369547428 3.196782653037903 1 1 2213
2214 3 11.690391853478262 11.121129105793994 3.962552753037748 1 1 2214
2215 3 12.664591174601451 10.542846369547428 3.196782653037903 1 1 2215
2216 3 12.339858067560389 11.121129105793994 3.962552753037748 1 1 2216
2217 3 13.314057388683576 10.542846369547428 3.196782653037903 1 1 2217
2218 3 12.989324281642514 11.121129105793994 3.962552753037748 1 1 2218
2219 3 13.963523602765703 10.542846369547428 3.196782653037903 1 1 2219
2220 3 13.638790495724638 11.121129105793994 3.962552753037748 1 1 2220
2221 3 14.612989816847827 10.542846369547428 3.196782653037903 1 1 2221
2222 3 14.288256709806765 11.121129105793994 3.962552753037748 1 1 2222
2223 3 15.262456030929954 10.542846369547428 3.196782653037903 1 1 2223
2224 3 14.937722923888892 11.121129105793994 3.962552753037748 1 1 2224
2225 3 15.911922245012079 10.542846369547428 3.196782653037903 1 1 2225
2226 3 15.587189137971016 11.121129105793994 3.962552753037748 1 1 2226
2227 3 16.561388459094204 10.542846369547428 3.196782653037903 1 1 2227
2228 3 16.23665535205314 11.121129105793994 3.962552753037748 1 1 2228
2229 3 17.210854673176332 10.542846369547428 3.196782653037903 1 1 2229
2230 3 16.886121566135266 11.121129105793994 3.962552753037748 1 1 2230
2231 3 17.860320887258457 10.542846369547428 3.196782653037903 1 1 2231
2232 3 17.535587780217394 11.121129105793994 3.962552753037748 1 1 2232
2233 3 18.50978710134058 10.542846369547428 3.196782653037903 1 1 2233
2234 3 18.18505399429952 11.121129105793994 3.962552753037748 1 1 2234
2235 3 19.159253315422706 10.542846369547428 3.196782653037903 1 1 2235
2236 3 18.834520208381644 11.121129105793994 3.962552753037748 1 1 2236
2237 3 19.808719529504835 10.542846369547428 3.196782653037903 1 1 2237
2238 3 19.483986422463772 11.121129105793994 3.962552753037748 1 1 2238
2239 3 20.45818574358696 10.542846369547428 3.196782653037903 1 1 2239
2240 3 20.133452636545897 11.121129105793994 3.962552753037748 1 1 2240
2241 3 21.107651957669084 10.542846369547428 3.196782653037903 1 1 2241
2242 3 20.782918850628022 11.121129105793994 3.962552753037748 1 1 2242
2243 3 21.75711817175121 10.542846369547428 3.196782653037903 1 1 2243
2244 3 21.432385064710147 11.121129105793994 3.962552753037748 1 1 2244
2245 3 0.32473310704106284 11.548855592902651 4.821543335826805 1 1 2245
2246 3 0.0 11.81146011835629 5.744502507353836 1 1 2246
2247 3 0.9741993211231885 11.548855592902651 4.821543335826805 1 1 2247
2248 3 0.6494662140821257 11.81146011835629 5.744502507353836 1 1 2248
2249 3 1.6236655352053142 11.548855592902651 4.821543335826805 1 1 2249
2250 3 1.2989324281642514 11.81146011835629 5.744502507353836 1 1 2250
2251 3 2.27313174928744 11.548855592902651 4.821543335826805 1 1 2251
2252 3 1.948398642246377 11.81146011835629 5.744502507353836 1 1 2252
2253 3 2.9225979633695656 11.548855592902651 4.821543335826805 1 1 2253
2254 3 2.5978648563285027 11.81146011835629 5.744502507353836 1 1 2254
2255 3 3.5720641774516912 11.548855592902651 4.821543335826805 1 1 2255
2256 3 3.2473310704106284 11.81146011835629 5.744502507353836 1 1 2256
2257 3 4.2215303915338165 11.548855592902651 4.821543335826805 1 1 2257
2258 3 3.896797284492754 11.81146011835629 5.744502507353836 1 1 2258
2259 3 4.870996605615943 11.548855592902651 4.821543335826805 1 1 2259
2260 3 4.54626349857488 11.81146011835629 5.744502507353836 1 1 2260
2261 3 5.520462819698068 11.548855592902651 4.821543335826805 1 1 2261
2262 3 5.1957297126570055 11.81146011835629 5.744502507353836 1 1 2262
2263 3 6.169929033780194 11.548855592902651 4.821543335826805 1 1 2263
2264 3 5.845195926739131 11.81146011835629 5.744502507353836 1 1 2264
2265 3 6.819395247862319 11.548855592902651 4.821543335826805 1 1 2265
2266 3 6.494662140821257 11.81146011835629 5.744502507353836 1 1 2266
2267 3 7.468861461944446 11.548855592902651 4.821543335826805 1 1 2267
2268 3 7.1441283549033825 11.81146011835629 5.744502507353836 1 1 2268
2269 3 8.11832767602657 11.548855592902651 4.821543335826805 1 1 2269
2270 3 7.793594568985508 11.81146011835629 5.744502507353836 1 1 2270
2271 3 8.767793890108697 11.548855592902651 4.821543335826805 1 1 2271
2272 3 8.443060783067633 11.81146011835629 5.744502507353836 1 1 2272
2273 3 9.417260104190822 11.548855592902651 4.821543335826805 1 1 2273
2274 3 9.09252699714976 11.81146011835629 5.744502507353836 1 1 2274
2275 3 10.066726318272949 11.548855592902651 4.821543335826805 1 1 2275
2276 3 9.741993211231886 11.81146011835629 5.744502507353836 1 1 2276
2277 3 10.716192532355073 11.548855592902651 4.821543335826805 1 1 2277
2278 3 10.391459425314011 11.81146011835629 5.744502507353836 1 1 2278
2279 3 11.3656587464372 11.548855592902651 4.821543335826805 1 1 2279
2280 3 11.040925639396136 11.81146011835629 5.744502507353836 1 1 2280
2281 3 12.015124960519325 11.548855592902651 4.821543335826805 1 1 2281
2282 3 11.690391853478262 11.81146011835629 5.744502507353836 1 1 2282
2283 3 12.664591174601451 11.548855592902651 4.821543335826805 1 1 2283
2284 3 12.339858067560389 11.81146011835629 5.744502507353836 1 1 2284
2285 3 13.314057388683576 11.548855592902651 4.821543335826805 1 1 2285
2286 3 12.989324281642514 11.81146011835629 5.744502507353836 1 1 2286
2287 3 13.963523602765703 11.548855592902651 4.821543335826805 1 1 2287
2288 3 13.638790495724638 11.81146011835629 5.744502507353836 1 1 2288
2289 3 14.612989816847827 11.548855592902651 4.821543335826805 1 1 2289
2290 3 14.288256709806765 11.81146011835629 5.744502507353836 1 1 2290
2291 3 15.262456030929954 11.548855592902651 4.821543335826805 1 1 2291
2292 3 14.937722923888892 11.81146011835629 5.744502507353836 1 1 2292
2293 3 15.911922245012079 11.548855592902651 4.821543335826805 1 1 2293
2294 3 15.587189137971016 11.81146011835629 5.744502507353836 1 1 2294
2295 3 16.561388459094204 11.548855592902651 4.821543335826805 1 1 2295
2296 3 16.23665535205314 11.81146011835629 5.744502507353836 1 1 2296
2297 3 17.210854673176332 11.548855592902651 4.821543335826805 1 1 2297
2298 3 16.886121566135266 11.81146011835629 5.744502507353836 1 1 2298
2299 3 17.860320887258457 11.548855592902651 4.821543335826805 1 1 2299
2300 3 17.535587780217394 11.81146011835629 5.744502507353836 1 1 2300
2301 3 18.50978710134058 11.548855592902651 4.821543335826805 1 1 2301
2302 3 18.18505399429952 11.81146011835629 5.744502507353836 1 1 2302
2303 3 19.159253315422706 11.548855592902651 4.821543335826805 1 1 2303
2304 3 18.834520208381644 11.81146011835629 5.744502507353836 1 1 2304
2305 3 19.808719529504835 11.548855592902651 4.821543335826805 1 1 2305
2306 3 19.483986422463772 11.81146011835629 5.744502507353836 1 1 2306
2307 3 20.45818574358696 11.548855592902651 4.821543335826805 1 1 2307
2308 3 20.133452636545897 11.81146011835629 5.744502507353836 1 1 2308
2309 3 21.107651957669084 11.548855592902651 4.821543335826805 1 1 2309
2310 3 20.782918850628022 11.81146011835629 5.744502507353836 1 1 2310
2311 3 21.75711817175121 11.548855592902651 4.821543335826805 1 1 2311
2312 3 21.432385064710147 11.81146011835629 5.744502507353836 1 1 2312
2313 2 0.6 2.4 5.3999999999999995 1 1 2313
2314 2 0.6 2.4 6.0 1 1 2314
2315 2 0.6 2.4 6.6 1 1 2315
2316 2 0.6 2.4 7.199999999999999 1 1 2316
2317 2 0.6 2.4 7.8 1 1 2317
2318 2 0.6 2.4 8.4 1 1 2318
2319 2 0.6 3.0 4.2 1 1 2319
2320 2 0.6 3.0 6.0 1 1 2320
2321 2 0.6 3.0 7.199999999999999 1 1 2321
2322 2 0.6 3.0 7.8 1 1 2322
2323 2 0.6 3.0 8.4 1 1 2323
2324 2 0.6 3.0 9.0 1 1 2324
2325 2 0.6 3.5999999999999996 3.5999999999999996 1 1 2325
2326 2 0.6 3.5999999999999996 4.2 1 1 2326
2327 2 0.6 3.5999999999999996 4.8 1 1 2327
2328 2 0.6 3.5999999999999996 6.0 1 1 2328
2329 2 0.6 3.5999999999999996 6.6 1 1 2329
2330 2 0.6 3.5999999999999996 7.199999999999999 1 1 2330
2331 2 0.6 3.5999999999999996 7.8 1 1 2331
2332 2 0.6 3.5999999999999996 9.6 1 1 2332
2333 2 0.6 3.5999999999999996 10.2 1 1 2333
2334 2 0.6 4.2 3.0 1 1 2334
2335 2 0.6 4.2 3.5999999999999996 1 1 2335
2336 2 0.6 4.2 4.2 1 1 2336
2337 2 0.6 4.2 4.8 1 1 2337
2338 2 0.6 4.2 5.3999999999999995 1 1 2338
2339 2 0.6 4.2 6.0 1 1 2339
2340 2 0.6 4.2 6.6 1 1 2340
2341 2 0.6 4.2 7.199999999999999 1 1 2341
2342 2 0.6 4.2 7.8 1 1 2342
2343 2 0.6 4.2 8.4 1 1 2343
2344 2 0.6 4.2 9.0 1 1 2344
2345 2 0.6 4.2 9.6 1 1 2345
2346 2 0.6 4.2 10.2 1 1 2346
2347 2 0.6 4.8 3.5999999999999996 1 1 2347
2348 2 0.6 4.8 4.8 1 1 2348
2349 2 0.6 4.8 5.3999999999999995 1 1 2349
2350 2 0.6 4.8 6.0 1 1 2350
2351 2 0.6 4.8 6.6 1 1 2351
2352 2 0.6 4.8 7.199999999999999 1 1 2352
2353 2 0.6 4.8 7.8 1 1 2353
2354 2 0.6 4.8 8.4 1 1 2354
2355 2 0.6 4.8 9.0 1 1 2355
2356 2 0.6 4.8 9.6 1 1 2356
2357 2 0.6 4.8 10.2 1 1 2357
2358 2 0.6 5.3999999999999995 2.4 1 1 2358
2359 2 0.6 5.3999999999999995 3.0 1 1 2359
2360 2 0.6 5.3999999999999995 3.5999999999999996 1 1 2360
2361 2 0.6 5.3999999999999995 4.2 1 1 2361
2362 2 0.6 5.3999999999999995 4.8 1 1 2362
2363 2 0.6 5.3999999999999995 5.3999999999999995 1 1 2363
2364 2 0.6 5.3999999999999995 6.0 1 1 2364
2365 2 0.6 5.3999999999999995 6.6 1 1 2365
2366 2 0.6 5.3999999999999995 7.199999999999999 1 1 2366
2367 2 0.6 5.3999999999999995 8.4 1 1 2367
2368 2 0.6 5.3999999999999995 9.0 1 1 2368
2369 2 0.6 5.3999999999999995 9.6 1 1 2369
2370 2 0.6 5.3999999999999995 10.2 1 1 2370
2371 2 0.6 5.3999999999999995 10.799999999999999 1 1 2371
2372 2 0.6 6.0 2.4 1 1 2372
2373 2 0.6 6.0 3.0 1 1 2373
2374 2 0.6 6.0 4.2 1 1 2374
2375 2 0.6 6.0 4.8 1 1 2375
2376 2 0.6 6.0 5.3999999999999995 1 1 2376
2377 2 0.6 6.0 6.0 1 1 2377
2378 2 0.6 6.0 6.6 1 1 2378
2379 2 0.6 6.0 7.199999999999999 1 1 2379
2380 2 0.6 6.0 7.8 1 1 2380
2381 2 0.6 6.0 8.4 1 1 2381
2382 2 0.6 6.0 9.0 1 1 2382
2383 2 0.6 6.0 9.6 1 1 2383
2384 2 0.6 6.0 10.2 1 1 2384
2385 2 0.6 6.0 10.799999999999999 1 1 2385
2386 2 0.6 6.6 2.4 1 1 2386
2387 2 0.6 6.6 3.0 1 1 2387
2388 2 0.6 6.6 3.5999999999999996 1 1 2388
2389 2 0.6 6.6 4.8 1 1 2389
2390 2 0.6 6.6 5.3999999999999995 1 1 2390
2391 2 0.6 6.6 6.0 1 1 2391
2392 2 0.6 6.6 6.6 1 1 2392
2393 2 0.6 6.6 7.199999999999999 1 1 2393
2394 2 0.6 6.6 7.8 1 1 2394
2395 2 0.6 6.6 8.4 1 1 2395
2396 2 0.6 6.6 9.0 1 1 2396
2397 2 0.6 6.6 9.6 1 1 2397
2398 2 0.6 6.6 10.2 1 1 2398
2399 2 0.6 6.6 10.799999999999999 1 1 2399
2400 2 0.6 7.199999999999999 2.4 1 1 2400
2401 2 0.6 7.199999999999999 3.0 1 1 2401
2402 2 0.6 7.199999999999999 3.5999999999999996 1 1 2402
2403 2 0.6 7.199999999999999 4.2 1 1 2403
2404 2 0.6 7.199999999999999 4.8 1 1 2404
2405 2 0.6 7.199999999999999 5.3999999999999995 1 1 2405
2406 2 0.6 7.199999999999999 6.0 1 1 2406
2407 2 0.6 7.199999999999999 6.6 1 1 2407
2408 2 0.6 7.199999999999999 7.199999999999999 1 1 2408
2409 2 0.6 7.199999999999999 7.8 1 1 2409
2410 2 0.6 7.199999999999999 8.4 1 1 2410
2411 2 0.6 7.199999999999999 9.0 1 1 2411
2412 2 0.6 7.199999999999999 9.6 1 1 2412
2413 2 0.6 7.199999999999999 10.2 1 1 2413
2414 2 0.6 7.199999999999999 10.799999999999999 1 1 2414
2415 2 0.6 7.8 2.4 1 1 2415
2416 2 0.6 7.8 3.0 1 1 2416
2417 2 0.6 7.8 3.5999999999999996 1 1 2417
2418 2 0.6 7.8 4.8 1 1 2418
2419 2 0.6 7.8 6.0 1 1 2419
2420 2 0.6 7.8 6.6 1 1 2420
2421 2 0.6 7.8 7.8 1 1 2421
2422 2 0.6 7.8 8.4 1 1 2422
2423 2 0.6 7.8 9.6 1 1 2423
2424 2 0.6 7.8 10.2 1 1 2424
2425 2 0.6 7.8 10.799999999999999 1 1 2425
2426 2 0.6 8.4 2.4 1 1 2426
2427 2 0.6 8.4 3.0 1 1 2427
2428 2 0.6 8.4 3.5999999999999996 1 1 2428
2429 2 0.6 8.4 4.2 1 1 2429
2430 2 0.6 8.4 5.3999999999999995 1 1 2430
2431 2 0.6 8.4 6.0 1 1 2431
2432 2 0.6 8.4 6.6 1 1 2432
2433 2 0.6 8.4 7.199999999999999 1 1 2433
2434 2 0.6 8.4 7.8 1 1 2434
2435 2 0.6 8.4 8.4 1 1 2435
2436 2 0.6 8.4 9.6 1 1 2436
2437 2 0.6 8.4 10.799999999999999 1 1 2437
2438 2 0.6 9.0 3.0 1 1 2438
2439 2 0.6 9.0 3.5999999999999996 1 1 2439
2440 2 0.6 9.0 4.2 1 1 2440
2441 2 0.6 9.0 4.8 1 1 2441
2442 2 0.6 9.0 5.3999999999999995 1 1 2442
2443 2 0.6 9.0 6.0 1 1 2443
2444 2 0.6 9.0 6.6 1 1 2444
2445 2 0.6 9.0 7.199999999999999 1 1 2445
2446 2 0.6 9.0 7.8 1 1 2446
2447 2 0.6 9.0 8.4 1 1 2447
2448 2 0.6 9.0 9.0 1 1 2448
2449 2 0.6 9.0 10.2 1 1 2449
2450 2 0.6 9.6 3.5999999999999996 1 1 2450
2451 2 0.6 9.6 4.2 1 1 2451
2452 2 0.6 9.6 4.8 1 1 2452
2453 2 0.6 9.6 5.3999999999999995 1 1 2453
2454 2 0.6 9.6 6.0 1 1 2454
2455 2 0.6 9.6 6.6 1 1 2455
2456 2 0.6 9.6 7.199999999999999 1 1 2456
2457 2 0.6 9.6 7.8 1 1 2457
2458 2 0.6 9.6 8.4 1 1 2458
2459 2 0.6 9.6 9.0 1 1 2459
2460 2 0.6 9.6 9.6 1 1 2460
2461 2 0.6 9.6 10.2 1 1 2461
2462 2 0.6 10.2 3.5999999999999996 1 1 2462
2463 2 0.6 10.2 4.2 1 1 2463
2464 2 0.6 10.2 4.8 1 1 2464
2465 2 0.6 10.2 5.3999999999999995 1 1 2465
2466 2 0.6 10.2 6.0 1 1 2466
2467 2 0.6 10.2 6.6 1 1 2467
2468 2 0.6 10.2 7.199999999999999 1 1 2468
2469 2 0.6 10.2 7.8 1 1 2469
2470 2 0.6 10.2 8.4 1 1 2470
2471 2 0.6 10.2 9.0 1 1 2471
2472 2 0.6 10.2 9.6 1 1 2472
2473 2 0.6 10.799999999999999 5.3999999999999995 1 1 2473
2474 2 0.6 10.799999999999999 6.0 1 1 2474
2475 2 0.6 10.799999999999999 6.6 1 1 2475
2476 2 0.6 10.799999999999999 7.199999999999999 1 1 2476
2477 2 0.6 10.799999999999999 7.8 1 1 2477
2478 2 0.6 10.799999999999999 8.4 1 1 2478
2479 2 1.2 2.4 5.3999999999999995 1 1 2479
2480 2 1.2 2.4 6.0 1 1 2480
2481 2 1.2 2.4 6.6 1 1 2481
2482 2 1.2 2.4 7.199999999999999 1 1 2482
2483 2 1.2 2.4 7.8 1 1 2483
2484 2 1.2 2.4 8.4 1 1 2484
2485 2 1.2 3.0 4.2 1 1 2485
2486 2 1.2 3.0 4.8 1 1 2486
2487 2 1.2 3.0 5.3999999999999995 1 1 2487
2488 2 1.2 3.0 6.0 1 1 2488
2489 2 1.2 3.0 6.6 1 1 2489
2490 2 1.2 3.0 7.199999999999999 1 1 2490
2491 2 1.2 3.0 7.8 1 1 2491
2492 2 1.2 3.0 8.4 1 1 2492
2493 2 1.2 3.5999999999999996 3.5999999999999996 1 1 2493
2494 2 1.2 3.5999999999999996 4.8 1 1 2494
2495 2 1.2 3.5999999999999996 5.3999999999999995 1 1 2495
2496 2 1.2 3.5999999999999996 6.0 1 1 2496
2497 2 1.2 3.5999999999999996 7.199999999999999 1 1 2497
2498 2 1.2 3.5999999999999996 7.8 1 1 2498
2499 2 1.2 3.5999999999999996 8.4 1 1 2499
2500 2 1.2 3.5999999999999996 9.6 1 1 2500
2501 2 1.2 3.5999999999999996 10.2 1 1 2501
2502 2 1.2 4.2 3.0 1 1 2502
2503 2 1.2 4.2 3.5999999999999996 1 1 2503
2504 2 1.2 4.2 4.2 1 1 2504
2505 2 1.2 4.2 4.8 1 1 2505
2506 2 1.2 4.2 5.3999999999999995 1 1 2506
2507 2 1.2 4.2 6.0 1 1 2507
2508 2 1.2 4.2 7.199999999999999 1 1 2508
2509 2 1.2 4.2 7.8 1 1 2509
2510 2 1.2 4.2 8.4 1 1 2510
2511 2 1.2 4.2 9.6 1 1 2511
2512 2 1.2 4.2 10.2 1 1 2512
2513 2 1.2 4.8 3.0 1 1 2513
2514 2 1.2 4.8 3.5999999999999996 1 1 2514
2515 2 1.2 4.8 4.2 1 1 2515
2516 2 1.2 4.8 4.8 1 1 2516
2517 2 1.2 4.8 5.3999999999999995 1 1 2517
2518 2 1.2 4.8 6.0 1 1 2518
2519 2 1.2 4.8 6.6 1 1 2519
2520 2 1.2 4.8 7.199999999999999 1 1 2520
2521 2 1.2 4.8 7.8 1 1 2521
2522 2 1.2 4.8 8.4 1 1 2522
2523 2 1.2 4.8 9.0 1 1 2523
2524 2 1.2 4.8 9.6 1 1 2524
2525 2 1.2 4.8 10.2 1 1 2525
2526 2 1.2 4.8 10.799999999999999 1 1 2526
2527 2 1.2 5.3999999999999995 2.4 1 1 2527
2528 2 1.2 5.3999999999999995 3.0 1 1 2528
2529 2 1.2 5.3999999999999995 3.5999999999999996 1 1 2529
2530 2 1.2 5.3999999999999995 4.8 1 1 2530
2531 2 1.2 5.3999999999999995 5.3999999999999995 1 1 2531
2532 2 1.2 5.3999999999999995 6.6 1 1 2532
2533 2 1.2 5.3999999999999995 7.199999999999999 1 1 2533
2534 2 1.2 5.3999999999999995 7.8 1 1 2534
2535 2 1.2 5.3999999999999995 8.4 1 1 2535
2536 2 1.2 5.3999999999999995 9.0 1 1 2536
2537 2 1.2 5.3999999999999995 10.2 1 1 2537
2538 2 1.2 5.3999999999999995 10.799999999999999 1 1 2538
2539 2 1.2 6.0 2.4 1 1 2539
2540 2 1.2 6.0 3.0 1 1 2540
2541 2 1.2 6.0 3.5999999999999996 1 1 2541
2542 2 1.2 6.0 4.2 1 1 2542
2543 2 1.2 6.0 5.3999999999999995 1 1 2543
2544 2 1.2 6.0 6.0 1 1 2544
2545 2 1.2 6.0 6.6 1 1 2545
2546 2 1.2 6.0 7.199999999999999 1 1 2546
2547 2 1.2 6.0 7.8 1 1 2547
2548 2 1.2 6.0 9.0 1 1 2548
2549 2 1.2 6.0 10.2 1 1 2549
2550 2 1.2 6.0 10.799999999999999 1 1 2550
2551 2 1.2 6.6 2.4 1 1 2551
2552 2 1.2 6.6 3.0 1 1 2552
2553 2 1.2 6.6 3.5999999999999996 1 1 2553
2554 2 1.2 6.6 4.2 1 1 2554
2555 2 1.2 6.6 4.8 1 1 2555
2556 2 1.2 6.6 5.3999999999999995 1 1 2556
2557 2 1.2 6.6 6.0 1 1 2557
2558 2 1.2 6.6 6.6 1 1 2558
2559 2 1.2 6.6 7.199999999999999 1 1 2559
2560 2 1.3190649083227446 6.479047919899917 8.152625502677504 1 1 2560
2561 2 1.2 6.6 9.0 1 1 2561
2562 2 1.2 6.6 10.2 1 1 2562
2563 2 1.2 6.6 10.799999999999999 1 1 2563
2564 2 1.2 7.199999999999999 2.4 1 1 2564
2565 2 1.2 7.199999999999999 3.0 1 1 2565
2566 2 1.2 7.199999999999999 3.5999999999999996 1 1 2566
2567 2 1.2 7.199999999999999 4.2 1 1 2567
2568 2 1.2 7.199999999999999 4.8 1 1 2568
2569 2 1.2 7.199999999999999 5.3999999999999995 1 1 2569
2570 2 1.2 7.199999999999999 6.0 1 1 2570
2571 2 1.2 7.199999999999999 6.6 1 1 2571
2572 2 1.2 7.199999999999999 7.199999999999999 1 1 2572
2573 2 1.2 7.199999999999999 7.8 1 1 2573
2574 2 1.2 7.199999999999999 8.4 1 1 2574
2575 2 1.2 7.199999999999999 9.0 1 1 2575
2576 2 1.2 7.199999999999999 9.6 1 1 2576
2577 2 1.2 7.199999999999999 10.2 1 1 2577
2578 2 1.2 7.199999999999999 10.799999999999999 1 1 2578
2579 2 1.2 7.8 2.4 1 1 2579
2580 2 1.2 7.8 3.0 1 1 2580
2581 2 1.2 7.8 3.5999999999999996 1 1 2581
2582 2 1.2 7.8 4.2 1 1 2582
2583 2 1.2 7.8 4.8 1 1 2583
2584 2 1.2 7.8 5.3999999999999995 1 1 2584
2585 2 1.2 7.8 6.0 1 1 2585
2586 2 1.2 7.8 6.6 1 1 2586
2587 2 1.2 7.8 7.199999999999999 1 1 2587
2588 2 1.2 7.8 7.8 1 1 2588
2589 2 1.2 7.8 8.4 1 1 2589
2590 2 1.2 7.8 9.0 1 1 2590
2591 2 1.2 7.8 9.6 1 1 2591
2592 2 1.2 7.8 10.2 1 1 2592
2593 2 1.2 8.4 2.4 1 1 2593
2594 2 1.2 8.4 3.0 1 1 2594
2595 2 1.2 8.4 3.5999999999999996 1 1 2595
2596 2 1.2 8.4 4.8 1 1 2596
2597 2 1.2 8.4 5.3999999999999995 1 1 2597
2598 2 1.2 8.4 6.0 1 1 2598
2599 2 1.2 8.4 6.6 1 1 2599
2600 2 1.2 8.4 7.199999999999999 1 1 2600
2601 2 1.2 8.4 8.4 1 1 2601
2602 2 1.2 8.4 9.6 1 1 2602
2603 2 1.2 8.4 10.2 1 1 2603
2604 2 1.2 8.4 10.799999999999999 1 1 2604
2605 2 1.2 9.0 3.5999999999999996 1 1 2605
2606 2 1.2 9.0 4.2 1 1 2606
2607 2 1.2 9.0 4.8 1 1 2607
2608 2 1.2 9.0 6.0 1 1 2608
2609 2 1.2 9.0 6.6 1 1 2609
2610 2 1.2 9.0 7.199999999999999 1 1 2610
2611 2 1.2 9.0 7.8 1 1 2611
2612 2 1.2 9.0 8.4 1 1 2612
2613 2 1.2 9.0 9.0 1 1 2613
2614 2 1.2 9.0 9.6 1 1 2614
2615 2 1.2 9.0 10.2 1 1 2615
2616 2 1.2 9.6 3.5999999999999996 1 1 2616
2617 2 1.2 9.6 4.2 1 1 2617
2618 2 1.2 9.6 4.8 1 1 2618
2619 2 1.2 9.6 5.3999999999999995 1 1 2619
2620 2 1.2 9.6 6.0 1 1 2620
2621 2 1.2 9.6 6.6 1 1 2621
2622 2 1.2 9.6 7.199999999999999 1 1 2622
2623 2 1.2 9.6 7.8 1 1 2623
2624 2 1.2 9.6 8.4 1 1 2624
2625 2 1.2 9.6 9.0 1 1 2625
2626 2 1.2 9.6 9.6 1 1 2626
2627 2 1.2 10.2 3.5999999999999996 1 1 2627
2628 2 1.2 10.2 4.8 1 1 2628
2629 2 1.2 10.2 5.3999999999999995 1 1 2629
2630 2 1.2 10.2 6.0 1 1 2630
2631 2 1.2 10.2 6.6 1 1 2631
2632 2 1.2 10.2 7.199999999999999 1 1 2632
2633 2 1.2 10.2 7.8 1 1 2633
2634 2 1.2 10.2 8.4 1 1 2634
2635 2 1.2 10.2 9.0 1 1 2635
2636 2 1.2 10.2 9.6 1 1 2636
2637 2 1.2 10.799999999999999 5.3999999999999995 1 1 2637
2638 2 1.2 10.799999999999999 6.0 1 1 2638
2639 2 1.2 10.799999999999999 6.6 1 1 2639
2640 2 1.2 10.799999999999999 7.199999999999999 1 1 2640
2641 2 1.2 10.799999999999999 7.8 1 1 2641
2642 2 1.2 10.799999999999999 8.4 1 1 2642
2643 2 1.7999999999999998 2.4 5.3999999999999995 1 1 2643
2644 2 1.7999999999999998 2.4 6.0 1 1 2644
2645 2 1.7999999999999998 2.4 6.6 1 1 2645
2646 2 1.7999999999999998 2.4 7.199999999999999 1 1 2646
2647 2 1.7999999999999998 2.4 7.8 1 1 2647
2648 2 1.7999999999999998 3.0 4.2 1 1 2648
2649 2 1.7999999999999998 3.0 4.8 1 1 2649
2650 2 1.7999999999999998 3.0 5.3999999999999995 1 1 2650
2651 2 1.7999999999999998 3.0 6.0 1 1 2651
2652 2 1.7999999999999998 3.0 6.6 1 1 2652
2653 2 1.7999999999999998 3.0 7.8 1 1 2653
2654 2 1.7999999999999998 3.0 8.4 1 1 2654
2655 2 1.7999999999999998 3.5999999999999996 3.5999999999999996 1 1 2655
2656 2 1.7999999999999998 3.5999999999999996 4.2 1 1 2656
2657 2 1.7999999999999998 3.5999999999999996 4.8 1 1 2657
2658 2 1.7999999999999998 3.5999999999999996 5.3999999999999995 1 1 2658
2659 2 1.7999999999999998 3.5999999999999996 6.0 1 1 2659
2660 2 1.7999999999999998 3.5999999999999996 6.6 1 1 2660
2661 2 1.7999999999999998 3.5999999999999996 7.199999999999999 1 1 2661
2662 2 1.7999999999999998 3.5999999999999996 8.4 1 1 2662
2663 2 1.7999999999999998 3.5999999999999996 9.0 1 1 2663
2664 2 1.7999999999999998 3.5999999999999996 9.6 1 1 2664
2665 2 1.7999999999999998 3.5999999999999996 10.2 1 1 2665
2666 2 1.7999999999999998 4.2 3.0 1 1 2666
2667 2 1.7999999999999998 4.2 3.5999999999999996 1 1 2667
2668 2 1.7999999999999998 4.2 4.2 1 1 2668
2669 2 1.7999999999999998 4.2 4.8 1 1 2669
2670 2 1.7999999999999998 4.2 5.3999999999999995 1 1 2670
2671 2 1.7999999999999998 4.2 6.0 1 1 2671
2672 2 1.7999999999999998 4.2 6.6 1 1 2672
2673 2 1.7999999999999998 4.2 7.199999999999999 1 1 2673
2674 2 1.7999999999999998 4.2 7.8 1 1 2674
2675 2 1.7999999999999998 4.2 8.4 1 1 2675
2676 2 1.7999999999999998 4.2 9.0 1 1 2676
2677 2 1.7999999999999998 4.2 9.6 1 1 2677
2678 2 1.7999999999999998 4.2 10.2 1 1 2678
2679 2 1.7999999999999998 4.8 4.2 1 1 2679
2680 2 1.7999999999999998 4.8 4.8 1 1 2680
2681 2 1.7999999999999998 4.8 5.3999999999999995 1 1 2681
2682 2 1.7999999999999998 4.8 6.0 1 1 2682
2683 2 1.7999999999999998 4.8 6.6 1 1 2683
2684 2 1.7999999999999998 4.8 7.199999999999999 1 1 2684
2685 2 1.7999999999999998 4.8 7.8 1 1 2685
2686 2 1.7999999999999998 4.8 8.4 1 1 2686
2687 2 1.7999999999999998 4.8 9.0 1 1 2687
2688 2 1.7999999999999998 4.8 9.6 1 1 2688
2689 2 1.7999999999999998 4.8 10.2 1 1 2689
2690 2 1.7999999999999998 4.8 10.799999999999999 1 1 2690
2691 2 1.7999999999999998 5.3999999999999995 2.4 1 1 2691
2692 2 1.7999999999999998 5.3999999999999995 3.0 1 1 2692
2693 2 1.7999999999999998 5.3999999999999995 3.5999999999999996 1 1 2693
2694 2 1.7999999999999998 5.3999999999999995 4.2 1 1 2694
2695 2 1.7999999999999998 5.3999999999999995 4.8 1 1 2695
2696 2 1.7999999999999998 5.3999999999999995 5.3999999999999995 1 1 2696
2697 2 1.7999999999999998 5.3999999999999995 6.0 1 1 2697
2698 2 1.7999999999999998 5.3999999999999995 7.199999999999999 1 1 2698
2699 2 1.7999999999999998 5.3999999999999995 7.8 1 1 2699
2700 2 1.7999999999999998 5.3999999999999995 8.4 1 1 2700
2701 2 1.7999999999999998 5.3999999999999995 9.0 1 1 2701
2702 2 1.7999999999999998 5.3999999999999995 10.2 1 1 2702
2703 2 1.7999999999999998 5.3999999999999995 10.799999999999999 1 1 2703
2704 2 1.7999999999999998 6.0 2.4 1 1 2704
2705 2 1.7999999999999998 6.0 3.0 1 1 2705
2706 2 1.7999999999999998 6.0 3.5999999999999996 1 1 2706
2707 2 1.7999999999999998 6.0 4.2 1 1 2707
2708 2 1.7999999999999998 6.0 5.3999999999999995 1 1 2708
2709 2 1.7999999999999998 6.0 6.0 1 1 2709
2710 2 1.7999999999999998 6.0 6.6 1 1 2710
2711 2 1.7999999999999998 6.0 7.199999999999999 1 1 2711
2712 2 1.7999999999999998 6.0 7.8 1 1 2712
2713 2 1.7999999999999998 6.0 8.4 1 1 2713
2714 2 1.7999999999999998 6.0 9.0 1 1 2714
2715 2 1.7999999999999998 6.0 9.6 1 1 2715
2716 2 1.7999999999999998 6.0 10.2 1 1 2716
2717 2 1.7999999999999998 6.0 10.799999999999999 1 1 2717
2718 2 1.7999999999999998 6.6 3.0 1 1 2718
2719 2 1.7999999999999998 6.6 3.5999999999999996 1 1 2719
2720 2 1.7999999999999998 6.6 4.2 1 1 2720
2721 2 1.7999999999999998 6.6 5.3999999999999995 1 1 2721
2722 2 1.7999999999999998 6.6 6.0 1 1 2722
2723 2 1.7999999999999998 6.6 6.6 1 1 2723
2724 2 1.7999999999999998 6.6 7.8 1 1 2724
2725 2 1.7999999999999998 6.6 9.6 1 1 2725
2726 2 1.7999999999999998 6.6 10.2 1 1 2726
2727 2 1.7999999999999998 6.6 10.799999999999999 1 1 2727
2728 2 1.7999999999999998 7.199999999999999 2.4 1 1 2728
2729 2 1.7999999999999998 7.199999999999999 3.0 1 1 2729
2730 2 1.7999999999999998 7.199999999999999 3.5999999999999996 1 1 2730
2731 2 1.7999999999999998 7.199999999999999 4.2 1 1 2731
2732 2 1.7999999999999998 7.199999999999999 6.0 1 1 2732
2733 2 1.7999999999999998 7.199999999999999 6.6 1 1 2733
2734 2 1.7999999999999998 7.199999999999999 7.199999999999999 1 1 2734
2735 2 1.7999999999999998 7.199999999999999 7.8 1 1 2735
2736 2 1.7999999999999998 7.199999999999999 9.0 1 1 2736
2737 2 1.7999999999999998 7.199999999999999 9.6 1 1 2737
2738 2 1.7999999999999998 7.199999999999999 10.2 1 1 2738
2739 2 1.7999999999999998 7.199999999999999 10.799999999999999 1 1 2739
2740 2 1.7999999999999998 7.8 2.4 1 1 2740
2741 2 1.7999999999999998 7.8 3.0 1 1 2741
2742 2 1.7999999999999998 7.8 3.5999999999999996 1 1 2742
2743 2 1.7999999999999998 7.8 4.2 1 1 2743
2744 2 1.7999999999999998 7.8 6.0 1 1 2744
2745 2 1.7999999999999998 7.8 7.199999999999999 1 1 2745
2746 2 1.7999999999999998 7.8 7.8 1 1 2746
2747 2 1.7999999999999998 7.8 8.4 1 1 2747
2748 2 1.7999999999999998 7.8 9.0 1 1 2748
2749 2 1.7999999999999998 7.8 10.2 1 1 2749
2750 2 1.7999999999999998 7.8 10.799999999999999 1 1 2750
2751 2 1.7999999999999998 8.4 2.4 1 1 2751
2752 2 1.7999999999999998 8.4 3.0 1 1 2752
2753 2 1.7999999999999998 8.4 3.5999999999999996 1 1 2753
2754 2 1.7999999999999998 8.4 4.2 1 1 2754
2755 2 1.7999999999999998 8.4 4.8 1 1 2755
2756 2 1.7999999999999998 8.4 6.0 1 1 2756
2757 2 1.7999999999999998 8.4 6.6 1 1 2757
2758 2 1.7999999999999998 8.4 7.199999999999999 1 1 2758
2759 2 1.7999999999999998 8.4 7.8 1 1 2759
2760 2 1.7999999999999998 8.4 8.4 1 1 2760
2761 2 1.7999999999999998 8.4 9.0 1 1 2761
2762 2 1.7999999999999998 8.4 9.6 1 1 2762
2763 2 1.7999999999999998 8.4 10.2 1 1 2763
2764 2 1.7999999999999998 8.4 10.799999999999999 1 1 2764
2765 2 1.7999999999999998 9.0 3.0 1 1 2765
2766 2 1.7999999999999998 9.0 3.5999999999999996 1 1 2766
2767 2 1.7999999999999998 9.0 4.2 1 1 2767
2768 2 1.7999999999999998 9.0 4.8 1 1 2768
2769 2 1.7999999999999998 9.0 5.3999999999999995 1 1 2769
2770 2 1.7999999999999998 9.0 6.0 1 1 2770
2771 2 1.7999999999999998 9.0 6.6 1 1 2771
2772 2 1.7999999999999998 9.0 7.199999999999999 1 1 2772
2773 2 1.7999999999999998 9.0 7.8 1 1 2773
2774 2 1.7999999999999998 9.0 8.4 1 1 2774
2775 2 1.7999999999999998 9.0 9.0 1 1 2775
2776 2 1.7999999999999998 9.0 9.6 1 1 2776
2777 2 1.7999999999999998 9.0 10.2 1 1 2777
2778 2 1.7999999999999998 9.6 3.5999999999999996 1 1 2778
2779 2 1.7999999999999998 9.6 4.2 1 1 2779
2780 2 1.7999999999999998 9.6 4.8 1 1 2780
2781 2 1.7999999999999998 9.6 5.3999999999999995 1 1 2781
2782 2 1.7999999999999998 9.6 6.0 1 1 2782
2783 2 1.7999999999999998 9.6 7.199999999999999 1 1 2783
2784 2 1.7999999999999998 9.6 7.8 1 1 2784
2785 2 1.7999999999999998 9.6 9.6 1 1 2785
2786 2 1.7999999999999998 9.6 10.2 1 1 2786
2787 2 1.7999999999999998 10.2 3.5999999999999996 1 1 2787
2788 2 1.7999999999999998 10.2 4.2 1 1 2788
2789 2 1.7999999999999998 10.2 4.8 1 1 2789
2790 2 1.7999999999999998 10.2 5.3999999999999995 1 1 2790
2791 2 1.7999999999999998 10.2 6.0 1 1 2791
2792 2 1.7999999999999998 10.2 6.6 1 1 2792
2793 2 1.7999999999999998 10.2 7.199999999999999 1 1 2793
2794 2 1.7999999999999998 10.2 7.8 1 1 2794
2795 2 1.7999999999999998 10.2 9.0 1 1 2795
2796 2 1.7999999999999998 10.2 9.6 1 1 2796
2797 2 1.7999999999999998 10.799999999999999 4.8 1 1 2797
2798 2 1.7999999999999998 10.799999999999999 5.3999999999999995 1 1 2798
2799 2 1.7999999999999998 10.799999999999999 6.0 1 1 2799
2800 2 1.7999999999999998 10.799999999999999 6.6 1 1 2800
2801 2 1.7999999999999998 10.799999999999999 7.199999999999999 1 1 2801
2802 2 1.7999999999999998 10.799999999999999 7.8 1 1 2802
2803 2 1.7999999999999998 10.799999999999999 8.4 1 1 2803
2804 2 2.4 2.4 5.3999999999999995 1 1 2804
2805 2 2.4 2.4 6.0 1 1 2805
2806 2 2.4 2.4 7.199999999999999 1 1 2806
2807 2 2.4 2.4 8.4 1 1 2807
2808 2 2.4 3.0 4.2 1 1 2808
2809 2 2.4 3.0 4.8 1 1 2809
2810 2 2.4 3.0 5.3999999999999995 1 1 2810
2811 2 2.4 3.0 6.0 1 1 2811
2812 2 2.4 3.0 6.6 1 1 2812
2813 2 2.5190649083227457 2.879047919899917 7.552625502677499 1 1 2813
2814 2 2.4 3.0 8.4 1 1 2814
2815 2 2.4 3.5999999999999996 3.5999999999999996 1 1 2815
2816 2 2.4 3.5999999999999996 4.2 1 1 2816
2817 2 2.4 3.5999999999999996 4.8 1 1 2817
2818 2 2.4 3.5999999999999996 5.3999999999999995 1 1 2818
2819 2 2.4 3.5999999999999996 6.0 1 1 2819
2820 2 2.4 3.5999999999999996 6.6 1 1 2820
2821 2 2.4 3.5999999999999996 7.199999999999999 1 1 2821
2822 2 2.4 3.5999999999999996 7.8 1 1 2822
2823 2 2.4 3.5999999999999996 8.4 1 1 2823
2824 2 2.4 3.5999999999999996 9.0 1 1 2824
2825 2 2.4 3.5999999999999996 9.6 1 1 2825
2826 2 2.4 4.2 3.0 1 1 2826
2827 2 2.4 4.2 3.5999999999999996 1 1 2827
2828 2 2.4 4.2 4.2 1 1 2828
2829 2 2.4 4.2 4.8 1 1 2829
2830 2 2.4 4.2 5.3999999999999995 1 1 2830
2831 2 2.4 4.2 6.0 1 1 2831
2832 2 2.4 4.2 6.6 1 1 2832
2833 2 2.4 4.2 7.199999999999999 1 1 2833
2834 2 2.4 4.2 7.8 1 1 2834
2835 2 2.4 4.2 8.4 1 1 2835
2836 2 2.4 4.2 9.6 1 1 2836
2837 2 2.4 4.2 10.2 1 1 2837
2838 2 2.4 4.8 3.0 1 1 2838
2839 2 2.4 4.8 3.5999999999999996 1 1 2839
2840 2 2.4 4.8 4.2 1 1 2840
2841 2 2.4 4.8 4.8 1 1 2841
2842 2 2.4 4.8 5.3999999999999995 1 1 2842
2843 2 2.4 4.8 6.0 1 1 2843
2844 2 2.4 4.8 7.199999999999999 1 1 2844
2845 2 2.4 4.8 7.8 1 1 2845
2846 2 2.4 4.8 8.4 1 1 2846
2847 2 2.4 4.8 9.0 1 1 2847
2848 2 2.4 4.8 10.2 1 1 2848
2849 2 2.4 4.8 10.799999999999999 1 1 2849
2850 2 2.4 5.3999999999999995 2.4 1 1 2850
2851 2 2.4 5.3999999999999995 3.0 1 1 2851
2852 2 2.4 5.3999999999999995 3.5999999999999996 1 1 2852
2853 2 2.4 5.3999999999999995 4.2 1 1 2853
2854 2 2.4 5.3999999999999995 4.8 1 1 2854
2855 2 2.4 5.3999999999999995 5.3999999999999995 1 1 2855
2856 2 2.4 5.3999999999999995 6.0 1 1 2856
2857 2 2.4 5.3999999999999995 7.199999999999999 1 1 2857
2858 2 2.4 5.3999999999999995 7.8 1 1 2858
2859 2 2.4 5.3999999999999995 8.4 1 1 2859
2860 2 2.4 5.3999999999999995 9.0 1 1 2860
2861 2 2.4 5.3999999999999995 9.6 1 1 2861
2862 2 2.4 5.3999999999999995 10.2 1 1 2862
2863 2 2.4 5.3999999999999995 10.799999999999999 1 1 2863
2864 2 2.4 6.0 2.4 1 1 2864
2865 2 2.4 6.0 3.0 1 1 2865
2866 2 2.4 6.0 3.5999999999999996 1 1 2866
2867 2 2.4 6.0 4.2 1 1 2867
2868 2 2.4 6.0 6.0 1 1 2868
2869 2 2.4 6.0 6.6 1 1 2869
2870 2 2.4 6.0 7.199999999999999 1 1 2870
2871 2 2.4 6.0 7.8 1 1 2871
2872 2 2.4 6.0 8.4 1 1 2872
2873 2 2.4 6.0 9.0 1 1 2873
2874 2 2.4 6.0 9.6 1 1 2874
2875 2 2.4 6.0 10.2 1 1 2875
2876 2 2.4 6.0 10.799999999999999 1 1 2876
2877 2 2.4 6.6 3.0 1 1 2877
2878 2 2.4 6.6 3.5999999999999996 1 1 2878
2879 2 2.4 6.6 4.2 1 1 2879
2880 2 2.4 6.6 5.3999999999999995 1 1 2880
2881 2 2.4 6.6 6.0 1 1 2881
2882 2 2.4 6.6 7.199999999999999 1 1 2882
2883 2 2.4 6.6 7.8 1 1 2883
2884 2 2.4 6.6 8.4 1 1 2884
2885 2 2.4 6.6 9.0 1 1 2885
2886 2 2.4 6.6 9.6 1 1 2886
2887 2 2.4 6.6 10.2 1 1 2887
2888 2 2.4 7.199999999999999 2.4 1 1 2888
2889 2 2.4 7.199999999999999 3.5999999999999996 1 1 2889
2890 2 2.4 7.199999999999999 4.2 1 1 2890
2891 2 2.4 7.199999999999999 4.8 1 1 2891
2892 2 2.4 7.199999999999999 5.3999999999999995 1 1 2892
2893 2 2.4 7.199999999999999 6.0 1 1 2893
2894 2 2.4 7.199999999999999 6.6 1 1 2894
2895 2 2.4 7.199999999999999 7.199999999999999 1 1 2895
2896 2 2.4 7.199999999999999 8.4 1 1 2896
2897 2 2.4 7.199999999999999 9.0 1 1 2897
2898 2 2.4 7.199999999999999 9.6 1 1 2898
2899 2 2.4 7.199999999999999 10.2 1 1 2899
2900 2 2.4 7.199999999999999 10.799999999999999 1 1 2900
2901 2 2.4 7.8 2.4 1 1 2901
2902 2 2.4 7.8 3.0 1 1 2902
2903 2 2.4 7.8 3.5999999999999996 1 1 2903
2904 2 2.4 7.8 4.2 1 1 2904
2905 2 2.4 7.8 4.8 1 1 2905
2906 2 2.4 7.8 6.0 1 1 2906
2907 2 2.4 7.8 7.199999999999999 1 1 2907
2908 2 2.4 7.8 7.8 1 1 2908
2909 2 2.4 7.8 8.4 1 1 2909
2910 2 2.4 7.8 9.0 1 1 2910
2911 2 2.4 7.8 9.6 1 1 2911
2912 2 2.4 7.8 10.799999999999999 1 1 2912
2913 2 2.4 8.4 2.4 1 1 2913
2914 2 2.4 8.4 3.0 1 1 2914
2915 2 2.4 8.4 4.2 1 1 2915
2916 2 2.4 8.4 4.8 1 1 2916
2917 2 2.4 8.4 5.3999999999999995 1 1 2917
2918 2 2.4 8.4 6.0 1 1 2918
2919 2 2.4 8.4 6.6 1 1 2919
2920 2 2.4 8.4 7.8 1 1 2920
2921 2 2.4 8.4 8.4 1 1 2921
2922 2 2.4 8.4 9.6 1 1 2922
2923 2 2.4 8.4 10.2 1 1 2923
2924 2 2.4 8.4 10.799999999999999 1 1 2924
2925 2 2.4 9.0 3.0 1 1 2925
2926 2 2.4 9.0 3.5999999999999996 1 1 2926
2927 2 2.4 9.0 4.2 1 1 2927
2928 2 2.4 9.0 4.8 1 1 2928
2929 2 2.4 9.0 5.3999999999999995 1 1 2929
2930 2 2.4 9.0 6.0 1 1 2930
2931 2 2.4 9.0 7.199999999999999 1 1 2931
2932 2 2.4 9.0 7.8 1 1 2932
2933 2 2.4 9.0 8.4 1 1 2933
2934 2 2.4 9.0 9.0 1 1 2934
2935 2 2.4 9.0 10.2 1 1 2935
2936 2 2.4 9.6 3.5999999999999996 1 1 2936
2937 2 2.4 9.6 4.2 1 1 2937
2938 2 2.4 9.6 4.8 1 1 2938
2939 2 2.4 9.6 5.3999999999999995 1 1 2939
2940 2 2.4 9.6 6.6 1 1 2940
2941 2 2.4 9.6 7.199999999999999 1 1 2941
2942 2 2.4 9.6 7.8 1 1 2942
2943 2 2.4 9.6 9.0 1 1 2943
2944 2 2.4 10.2 3.5999999999999996 1 1 2944
2945 2 2.4 10.2 4.2 1 1 2945
2946 2 2.4 10.2 4.8 1 1 2946
2947 2 2.4 10.2 5.3999999999999995 1 1 2947
2948 2 2.4 10.2 6.0 1 1 2948
2949 2 2.4 10.2 6.6 1 1 2949
2950 2 2.4 10.2 7.8 1 1 2950
2951 2 2.4 10.2 8.4 1 1 2951
2952 2 2.4 10.2 9.0 1 1 2952
2953 2 2.4 10.2 9.6 1 1 2953
2954 2 2.4 10.799999999999999 4.8 1 1 2954
2955 2 2.4 10.799999999999999 5.3999999999999995 1 1 2955
2956 2 2.4 10.799999999999999 6.0 1 1 2956
2957 2 2.4 10.799999999999999 6.6 1 1 2957
2958 2 2.4 10.799999999999999 7.199999999999999 1 1 2958
2959 2 2.4 10.799999999999999 8.4 1 1 2959
2960 2 3.0 2.4 5.3999999999999995 1 1 2960
2961 2 3.0 2.4 6.0 1 1 2961
2962 2 3.0 2.4 6.6 1 1 2962
2963 2 3.0 2.4 7.199999999999999 1 1 2963
2964 2 3.0 2.4 7.8 1 1 2964
2965 2 3.0 2.4 8.4 1 1 2965
2966 2 3.0 3.0 4.2 1 1 2966
2967 2 3.0 3.0 4.8 1 1 2967
2968 2 3.0 3.0 5.3999999999999995 1 1 2968
2969 2 3.0 3.0 6.0 1 1 2969
2970 2 3.0 3.0 6.6 1 1 2970
2971 2 3.0 3.0 7.199999999999999 1 1 2971
2972 2 3.0 3.0 8.4 1 1 2972
2973 2 3.0 3.0 9.0 1 1 2973
2974 2 3.0 3.5999999999999996 3.5999999999999996 1 1 2974
2975 2 3.0 3.5999999999999996 4.2 1 1 2975
2976 2 3.0 3.5999999999999996 4.8 1 1 2976
2977 2 3.0 3.5999999999999996 5.3999999999999995 1 1 2977
2978 2 3.0 3.5999999999999996 6.0 1 1 2978
2979 2 3.0 3.5999999999999996 6.6 1 1 2979
2980 2 3.0 3.5999999999999996 7.199999999999999 1 1 2980
2981 2 3.0 3.5999999999999996 7.8 1 1 2981
2982 2 3.0 3.5999999999999996 8.4 1 1 2982
2983 2 3.0 3.5999999999999996 9.0 1 1 2983
2984 2 3.0 3.5999999999999996 10.2 1 1 2984
2985 2 3.0 4.2 3.0 1 1 2985
2986 2 3.0 4.2 3.5999999999999996 1 1 2986
2987 2 3.0 4.2 4.2 1 1 2987
2988 2 3.0 4.2 4.8 1 1 2988
2989 2 3.0 4.2 5.3999999999999995 1 1 2989
2990 2 3.0 4.2 6.0 1 1 2990
2991 2 3.0 4.2 7.199999999999999 1 1 2991
2992 2 3.0 4.2 7.8 1 1 2992
2993 2 3.0 4.2 8.4 1 1 2993
2994 2 3.0 4.2 9.0 1 1 2994
2995 2 3.0 4.2 9.6 1 1 2995
2996 2 3.0 4.2 10.2 1 1 2996
2997 2 3.0 4.8 3.0 1 1 2997
2998 2 3.0 4.8 3.5999999999999996 1 1 2998
2999 2 3.0 4.8 4.2 1 1 2999
3000 2 3.0 4.8 4.8 1 1 3000
3001 2 3.0 4.8 5.3999999999999995 1 1 3001
3002 2 3.0 4.8 6.6 1 1 3002
3003 2 3.0 4.8 7.199999999999999 1 1 3003
3004 2 3.0 4.8 7.8 1 1 3004
3005 2 3.0 4.8 9.6 1 1 3005
3006 2 3.0 4.8 10.2 1 1 3006
3007 2 3.0 4.8 10.799999999999999 1 1 3007
3008 2 3.0 5.3999999999999995 2.4 1 1 3008
3009 2 3.0 5.3999999999999995 3.0 1 1 3009
3010 2 3.0 5.3999999999999995 3.5999999999999996 1 1 3010
3011 2 3.0 5.3999999999999995 4.2 1 1 3011
3012 2 3.0 5.3999999999999995 4.8 1 1 3012
3013 2 3.0 5.3999999999999995 5.3999999999999995 1 1 3013
3014 2 3.0 5.3999999999999995 6.0 1 1 3014
3015 2 3.0 5.3999999999999995 6.6 1 1 3015
3016 2 3.0 5.3999999999999995 7.199999999999999 1 1 3016
3017 2 3.0 5.3999999999999995 7.8 1 1 3017
3018 2 3.0 5.3999999999999995 8.4 1 1 3018
3019 2 3.0 5.3999999999999995 9.0 1 1 3019
3020 2 3.0 5.3999999999999995 9.6 1 1 3020
3021 2 3.0 5.3999999999999995 10.2 1 1 3021
3022 2 3.0 5.3999999999999995 10.799999999999999 1 1 3022
3023 2 3.0 6.0 2.4 1 1 3023
3024 2 3.0 6.0 3.0 1 1 3024
3025 2 3.0 6.0 3.5999999999999996 1 1 3025
3026 2 3.0 6.0 4.2 1 1 3026
3027 2 3.0 6.0 4.8 1 1 3027
3028 2 3.0 6.0 6.0 1 1 3028
3029 2 3.0 6.0 6.6 1 1 3029
3030 2 3.0 6.0 7.199999999999999 1 1 3030
3031 2 3.0 6.0 7.8 1 1 3031
3032 2 3.0 6.0 8.4 1 1 3032
3033 2 3.0 6.0 9.0 1 1 3033
3034 2 3.0 6.0 9.6 1 1 3034
3035 2 3.0 6.6 2.4 1 1 3035
3036 2 3.0 6.6 3.0 1 1 3036
3037 2 3.0 6.6 3.5999999999999996 1 1 3037
3038 2 3.0 6.6 4.8 1 1 3038
3039 2 3.0 6.6 5.3999999999999995 1 1 3039
3040 2 3.0 6.6 6.0 1 1 3040
3041 2 3.0 6.6 6.6 1 1 3041
3042 2 3.0 6.6 7.199999999999999 1 1 3042
3043 2 3.0 6.6 7.8 1 1 3043
3044 2 3.0 6.6 8.4 1 1 3044
3045 2 3.0 6.6 9.0 1 1 3045
3046 2 3.0 6.6 9.6 1 1 3046
3047 2 3.0 6.6 10.2 1 1 3047
3048 2 3.0 6.6 10.799999999999999 1 1 3048
3049 2 3.0 7.199999999999999 2.4 1 1 3049
3050 2 3.0 7.199999999999999 3.0 1 1 3050
3051 2 3.0 7.199999999999999 4.2 1 1 3051
3052 2 3.0 7.199999999999999 5.3999999999999995 1 1 3052
3053 2 3.0 7.199999999999999 7.199999999999999 1 1 3053
3054 2 3.0 7.199999999999999 9.0 1 1 3054
3055 2 3.0 7.199999999999999 9.6 1 1 3055
3056 2 3.0 7.199999999999999 10.2 1 1 3056
3057 2 3.0 7.199999999999999 10.799999999999999 1 1 3057
3058 2 3.0 7.8 2.4 1 1 3058
3059 2 3.0 7.8 3.0 1 1 3059
3060 2 3.0 7.8 3.5999999999999996 1 1 3060
3061 2 3.0 7.8 4.2 1 1 3061
3062 2 3.0 7.8 4.8 1 1 3062
3063 2 3.0 7.8 5.3999999999999995 1 1 3063
3064 2 3.0 7.8 6.0 1 1 3064
3065 2 3.0 7.8 6.6 1 1 3065
3066 2 3.0 7.8 7.199999999999999 1 1 3066
3067 2 3.0 7.8 8.4 1 1 3067
3068 2 3.0 7.8 9.0 1 1 3068
3069 2 3.0 7.8 9.6 1 1 3069
3070 2 3.0 7.8 10.2 1 1 3070
3071 2 3.0 7.8 10.799999999999999 1 1 3071
3072 2 3.0 8.4 3.0 1 1 3072
3073 2 3.0 8.4 4.2 1 1 3073
3074 2 3.0 8.4 4.8 1 1 3074
3075 2 3.0 8.4 5.3999999999999995 1 1 3075
3076 2 3.0 8.4 6.0 1 1 3076
3077 2 3.0 8.4 6.6 1 1 3077
3078 2 3.0 8.4 7.199999999999999 1 1 3078
3079 2 3.0 8.4 7.8 1 1 3079
3080 2 3.0 8.4 9.0 1 1 3080
3081 2 3.0 8.4 9.6 1 1 3081
3082 2 3.0 8.4 10.2 1 1 3082
3083 2 3.0 8.4 10.799999999999999 1 1 3083
3084 2 3.0 9.0 3.0 1 1 3084
3085 2 3.0 9.0 4.2 1 1 3085
3086 2 3.0 9.0 4.8 1 1 3086
3087 2 3.0 9.0 5.3999999999999995 1 1 3087
3088 2 3.0 9.0 6.0 1 1 3088
3089 2 3.0 9.0 6.6 1 1 3089
3090 2 3.0 9.0 7.199999999999999 1 1 3090
3091 2 3.0 9.0 8.4 1 1 3091
3092 2 3.0 9.0 10.2 1 1 3092
3093 2 3.0 9.6 4.8 1 1 3093
3094 2 3.0 9.6 5.3999999999999995 1 1 3094
3095 2 3.0 9.6 6.0 1 1 3095
3096 2 3.0 9.6 6.6 1 1 3096
3097 2 3.0 9.6 7.8 1 1 3097
3098 2 3.0 9.6 8.4 1 1 3098
3099 2 3.0 9.6 9.6 1 1 3099
3100 2 3.0 9.6 10.2 1 1 3100
3101 2 3.0 10.2 3.5999999999999996 1 1 3101
3102 2 3.0 10.2 4.2 1 1 3102
3103 2 3.0 10.2 4.8 1 1 3103
3104 2 3.0 10.2 5.3999999999999995 1 1 3104
3105 2 3.0 10.2 6.0 1 1 3105
3106 2 3.0 10.2 6.6 1 1 3106
3107 2 3.0 10.2 7.199999999999999 1 1 3107
3108 2 3.0 10.2 7.8 1 1 3108
3109 2 3.0 10.2 8.4 1 1 3109
3110 2 3.0 10.2 9.6 1 1 3110
3111 2 3.0 10.799999999999999 4.8 1 1 3111
3112 2 3.0 10.799999999999999 5.3999999999999995 1 1 3112
3113 2 3.0 10.799999999999999 6.0 1 1 3113
3114 2 3.0 10.799999999999999 6.6 1 1 3114
3115 2 3.0 10.799999999999999 7.199999999999999 1 1 3115
3116 2 3.0 10.799999999999999 8.4 1 1 3116
3117 2 3.5999999999999996 2.4 5.3999999999999995 1 1 3117
3118 2 3.5999999999999996 2.4 6.0 1 1 3118
3119 2 3.5999999999999996 2.4 6.6 1 1 3119
3120 2 3.5999999999999996 2.4 7.199999999999999 1 1 3120
3121 2 3.5999999999999996 2.4 7.8 1 1 3121
3122 2 3.5999999999999996 2.4 8.4 1 1 3122
3123 2 3.5999999999999996 3.0 4.2 1 1 3123
3124 2 3.5999999999999996 3.0 5.3999999999999995 1 1 3124
3125 2 3.5999999999999996 3.0 6.0 1 1 3125
3126 2 3.5999999999999996 3.0 6.6 1 1 3126
3127 2 3.5999999999999996 3.0 7.199999999999999 1 1 3127
3128 2 3.5999999999999996 3.0 8.4 1 1 3128
3129 2 3.5999999999999996 3.0 9.0 1 1 3129
3130 2 3.5999999999999996 3.5999999999999996 4.8 1 1 3130
3131 2 3.5999999999999996 3.5999999999999996 5.3999999999999995 1 1 3131
3132 2 3.5999999999999996 3.5999999999999996 6.6 1 1 3132
3133 2 3.5999999999999996 3.5999999999999996 7.199999999999999 1 1 3133
3134 2 3.5999999999999996 3.5999999999999996 7.8 1 1 3134
3135 2 3.5999999999999996 3.5999999999999996 8.4 1 1 3135
3136 2 3.5999999999999996 3.5999999999999996 9.0 1 1 3136
3137 2 3.5999999999999996 3.5999999999999996 10.2 1 1 3137
3138 2 3.5999999999999996 4.2 3.0 1 1 3138
3139 2 3.5999999999999996 4.2 3.5999999999999996 1 1 3139
3140 2 3.5999999999999996 4.2 4.2 1 1 3140
3141 2 3.5999999999999996 4.2 6.0 1 1 3141
3142 2 3.5999999999999996 4.2 6.6 1 1 3142
3143 2 3.5999999999999996 4.2 7.199999999999999 1 1 3143
3144 2 3.5999999999999996 4.2 7.8 1 1 3144
3145 2 3.5999999999999996 4.2 9.0 1 1 3145
3146 2 3.5999999999999996 4.2 9.6 1 1 3146
3147 2 3.5999999999999996 4.2 10.2 1 1 3147
3148 2 3.5999999999999996 4.8 3.0 1 1 3148
3149 2 3.5999999999999996 4.8 3.5999999999999996 1 1 3149
3150 2 3.5999999999999996 4.8 4.2 1 1 3150
3151 2 3.5999999999999996 4.8 4.8 1 1 3151
3152 2 3.5999999999999996 4.8 5.3999999999999995 1 1 3152
3153 2 3.5999999999999996 4.8 6.0 1 1 3153
3154 2 3.5999999999999996 4.8 6.6 1 1 3154
3155 2 3.5999999999999996 4.8 8.4 1 1 3155
3156 2 3.5999999999999996 4.8 9.0 1 1 3156
3157 2 3.5999999999999996 4.8 9.6 1 1 3157
3158 2 3.5999999999999996 4.8 10.2 1 1 3158
3159 2 3.5999999999999996 4.8 10.799999999999999 1 1 3159
3160 2 3.5999999999999996 5.3999999999999995 2.4 1 1 3160
3161 2 3.5999999999999996 5.3999999999999995 3.0 1 1 3161
3162 2 3.5999999999999996 5.3999999999999995 4.2 1 1 3162
3163 2 3.5999999999999996 5.3999999999999995 4.8 1 1 3163
3164 2 3.5999999999999996 5.3999999999999995 6.0 1 1 3164
3165 2 3.5999999999999996 5.3999999999999995 6.6 1 1 3165
3166 2 3.5999999999999996 5.3999999999999995 7.199999999999999 1 1 3166
3167 2 3.5999999999999996 5.3999999999999995 7.8 1 1 3167
3168 2 3.5999999999999996 5.3999999999999995 8.4 1 1 3168
3169 2 3.5999999999999996 5.3999999999999995 9.0 1 1 3169
3170 2 3.5999999999999996 5.3999999999999995 9.6 1 1 3170
3171 2 3.5999999999999996 5.3999999999999995 10.2 1 1 3171
3172 2 3.5999999999999996 5.3999999999999995 10.799999999999999 1 1 3172
3173 2 3.5999999999999996 6.0 2.4 1 1 3173
3174 2 3.5999999999999996 6.0 3.0 1 1 3174
3175 2 3.5999999999999996 6.0 3.5999999999999996 1 1 3175
3176 2 3.5999999999999996 6.0 4.2 1 1 3176
3177 2 3.5999999999999996 6.0 5.3999999999999995 1 1 3177
3178 2 3.5999999999999996 6.0 6.0 1 1 3178
3179 2 3.5999999999999996 6.0 6.6 1 1 3179
3180 2 3.5999999999999996 6.0 7.199999999999999 1 1 3180
3181 2 3.5999999999999996 6.0 8.4 1 1 3181
3182 2 3.5999999999999996 6.0 9.0 1 1 3182
3183 2 3.5999999999999996 6.0 9.6 1 1 3183
3184 2 3.5999999999999996 6.0 10.2 1 1 3184
3185 2 3.5999999999999996 6.0 10.799999999999999 1 1 3185
3186 2 3.5999999999999996 6.6 2.4 1 1 3186
3187 2 3.5999999999999996 6.6 3.0 1 1 3187
3188 2 3.5999999999999996 6.6 4.2 1 1 3188
3189 2 3.5999999999999996 6.6 4.8 1 1 3189
3190 2 3.5999999999999996 6.6 5.3999999999999995 1 1 3190
3191 2 3.5999999999999996 6.6 6.0 1 1 3191
3192 2 3.5999999999999996 6.6 6.6 1 1 3192
3193 2 3.5999999999999996 6.6 7.199999999999999 1 1 3193
3194 2 3.5999999999999996 6.6 7.8 1 1 3194
3195 2 3.5999999999999996 6.6 8.4 1 1 3195
3196 2 3.5999999999999996 6.6 9.0 1 1 3196
3197 2 3.5999999999999996 6.6 9.6 1 1 3197
3198 2 3.5999999999999996 6.6 10.2 1 1 3198
3199 2 3.5999999999999996 6.6 10.799999999999999 1 1 3199
3200 2 3.7190649083227454 7.079047919899916 3.3526255026775007 1 1 3200
3201 2 3.5999999999999996 7.199999999999999 4.2 1 1 3201
3202 2 3.5999999999999996 7.199999999999999 4.8 1 1 3202
3203 2 3.5999999999999996 7.199999999999999 5.3999999999999995 1 1 3203
3204 2 3.5999999999999996 7.199999999999999 6.6 1 1 3204
3205 2 3.5999999999999996 7.199999999999999 7.8 1 1 3205
3206 2 3.5999999999999996 7.199999999999999 8.4 1 1 3206
3207 2 3.5999999999999996 7.199999999999999 9.0 1 1 3207
3208 2 3.5999999999999996 7.199999999999999 10.2 1 1 3208
3209 2 3.5999999999999996 7.199999999999999 10.799999999999999 1 1 3209
3210 2 3.5999999999999996 7.8 2.4 1 1 3210
3211 2 3.5999999999999996 7.8 3.0 1 1 3211
3212 2 3.5999999999999996 7.8 3.5999999999999996 1 1 3212
3213 2 3.5999999999999996 7.8 4.2 1 1 3213
3214 2 3.5999999999999996 7.8 4.8 1 1 3214
3215 2 3.5999999999999996 7.8 6.0 1 1 3215
3216 2 3.5999999999999996 7.8 6.6 1 1 3216
3217 2 3.5999999999999996 7.8 7.199999999999999 1 1 3217
3218 2 3.5999999999999996 7.8 7.8 1 1 3218
3219 2 3.5999999999999996 7.8 8.4 1 1 3219
3220 2 3.5999999999999996 7.8 9.6 1 1 3220
3221 2 3.5999999999999996 7.8 10.2 1 1 3221
3222 2 3.5999999999999996 7.8 10.799999999999999 1 1 3222
3223 2 3.5999999999999996 8.4 2.4 1 1 3223
3224 2 3.5999999999999996 8.4 3.0 1 1 3224
3225 2 3.5999999999999996 8.4 3.5999999999999996 1 1 3225
3226 2 3.5999999999999996 8.4 4.2 1 1 3226
3227 2 3.5999999999999996 8.4 4.8 1 1 3227
3228 2 3.5999999999999996 8.4 5.3999999999999995 1 1 3228
3229 2 3.5999999999999996 8.4 6.0 1 1 3229
3230 2 3.5999999999999996 8.4 6.6 1 1 3230
3231 2 3.5999999999999996 8.4 7.199999999999999 1 1 3231
3232 2 3.5999999999999996 8.4 8.4 1 1 3232
3233 2 3.5999999999999996 8.4 9.0 1 1 3233
3234 2 3.5999999999999996 8.4 9.6 1 1 3234
3235 2 3.5999999999999996 8.4 10.2 1 1 3235
3236 2 3.5999999999999996 8.4 10.799999999999999 1 1 3236
3237 2 3.5999999999999996 9.0 3.0 1 1 3237
3238 2 3.5999999999999996 9.0 4.2 1 1 3238
3239 2 3.5999999999999996 9.0 4.8 1 1 3239
3240 2 3.5999999999999996 9.0 5.3999999999999995 1 1 3240
3241 2 3.5999999999999996 9.0 6.0 1 1 3241
3242 2 3.5999999999999996 9.0 6.6 1 1 3242
3243 2 3.5999999999999996 9.0 7.199999999999999 1 1 3243
3244 2 3.5999999999999996 9.0 7.8 1 1 3244
3245 2 3.5999999999999996 9.0 8.4 1 1 3245
3246 2 3.5999999999999996 9.0 9.0 1 1 3246
3247 2 3.5999999999999996 9.0 9.6 1 1 3247
3248 2 3.5999999999999996 9.0 10.2 1 1 3248
3249 2 3.5999999999999996 9.6 3.5999999999999996 1 1 3249
3250 2 3.5999999999999996 9.6 4.2 1 1 3250
3251 2 3.5999999999999996 9.6 4.8 1 1 3251
3252 2 3.5999999999999996 9.6 6.0 1 1 3252
3253 2 3.5999999999999996 9.6 6.6 1 1 3253
3254 2 3.5999999999999996 9.6 7.199999999999999 1 1 3254
3255 2 3.5999999999999996 9.6 7.8 1 1 3255
3256 2 3.5999999999999996 9.6 9.0 1 1 3256
3257 2 3.5999999999999996 9.6 9.6 1 1 3257
3258 2 3.5999999999999996 9.6 10.2 1 1 3258
3259 2 3.5999999999999996 10.2 3.5999999999999996 1 1 3259
3260 2 3.5999999999999996 10.2 4.2 1 1 3260
3261 2 3.5999999999999996 10.2 5.3999999999999995 1 1 3261
3262 2 3.5999999999999996 10.2 6.0 1 1 3262
3263 2 3.5999999999999996 10.2 6.6 1 1 3263
3264 2 3.5999999999999996 10.2 7.199999999999999 1 1 3264
3265 2 3.5999999999999996 10.2 7.8 1 1 3265
3266 2 3.5999999999999996 10.2 8.4 1 1 3266
3267 2 3.5999999999999996 10.2 9.0 1 1 3267
3268 2 3.5999999999999996 10.2 9.6 1 1 3268
3269 2 3.5999999999999996 10.799999999999999 4.8 1 1 3269
3270 2 3.5999999999999996 10.799999999999999 6.0 1 1 3270
3271 2 3.5999999999999996 10.799999999999999 6.6 1 1 3271
3272 2 3.5999999999999996 10.799999999999999 7.199999999999999 1 1 3272
3273 2 3.5999999999999996 10.799999999999999 7.8 1 1 3273
3274 2 3.5999999999999996 10.799999999999999 8.4 1 1 3274
3275 2 4.2 2.4 5.3999999999999995 1 1 3275
3276 2 4.2 2.4 6.0 1 1 3276
3277 2 4.2 2.4 6.6 1 1 3277
3278 2 4.2 2.4 7.199999999999999 1 1 3278
3279 2 4.2 2.4 7.8 1 1 3279
3280 2 4.2 2.4 8.4 1 1 3280
3281 2 4.2 3.0 4.8 1 1 3281
3282 2 4.2 3.0 5.3999999999999995 1 1 3282
3283 2 4.2 3.0 6.0 1 1 3283
3284 2 4.2 3.0 6.6 1 1 3284
3285 2 4.2 3.0 7.199999999999999 1 1 3285
3286 2 4.2 3.0 7.8 1 1 3286
3287 2 4.2 3.0 8.4 1 1 3287
3288 2 4.2 3.0 9.0 1 1 3288
3289 2 4.2 3.5999999999999996 3.5999999999999996 1 1 3289
3290 2 4.2 3.5999999999999996 4.8 1 1 3290
3291 2 4.2 3.5999999999999996 5.3999999999999995 1 1 3291
3292 2 4.2 3.5999999999999996 6.0 1 1 3292
3293 2 4.2 3.5999999999999996 6.6 1 1 3293
3294 2 4.2 3.5999999999999996 7.199999999999999 1 1 3294
3295 2 4.2 3.5999999999999996 7.8 1 1 3295
3296 2 4.2 3.5999999999999996 8.4 1 1 3296
3297 2 4.2 3.5999999999999996 9.0 1 1 3297
3298 2 4.2 3.5999999999999996 9.6 1 1 3298
3299 2 4.2 3.5999999999999996 10.2 1 1 3299
3300 2 4.2 4.2 3.0 1 1 3300
3301 2 4.2 4.2 3.5999999999999996 1 1 3301
3302 2 4.2 4.2 4.2 1 1 3302
3303 2 4.2 4.2 5.3999999999999995 1 1 3303
3304 2 4.2 4.2 6.0 1 1 3304
3305 2 4.2 4.2 6.6 1 1 3305
3306 2 4.2 4.2 7.199999999999999 1 1 3306
3307 2 4.2 4.2 7.8 1 1 3307
3308 2 4.2 4.2 8.4 1 1 3308
3309 2 4.2 4.2 9.0 1 1 3309
3310 2 4.2 4.2 9.6 1 1 3310
3311 2 4.2 4.2 10.2 1 1 3311
3312 2 4.2 4.8 3.0 1 1 3312
3313 2 4.2 4.8 3.5999999999999996 1 1 3313
3314 2 4.2 4.8 4.2 1 1 3314
3315 2 4.2 4.8 4.8 1 1 3315
3316 2 4.2 4.8 6.0 1 1 3316
3317 2 4.2 4.8 6.6 1 1 3317
3318 2 4.2 4.8 7.199999999999999 1 1 3318
3319 2 4.2 4.8 7.8 1 1 3319
3320 2 4.2 4.8 8.4 1 1 3320
3321 2 4.2 4.8 9.0 1 1 3321
3322 2 4.2 4.8 9.6 1 1 3322
3323 2 4.2 4.8 10.2 1 1 3323
3324 2 4.2 4.8 10.799999999999999 1 1 3324
3325 2 4.2 5.3999999999999995 2.4 1 1 3325
3326 2 4.2 5.3999999999999995 3.0 1 1 3326
3327 2 4.2 5.3999999999999995 3.5999999999999996 1 1 3327
3328 2 4.2 5.3999999999999995 4.2 1 1 3328
3329 2 4.2 5.3999999999999995 4.8 1 1 3329
3330 2 4.2 5.3999999999999995 5.3999999999999995 1 1 3330
3331 2 4.2 5.3999999999999995 6.6 1 1 3331
3332 2 4.2 5.3999999999999995 7.199999999999999 1 1 3332
3333 2 4.2 5.3999999999999995 7.8 1 1 3333
3334 2 4.2 5.3999999999999995 8.4 1 1 3334
3335 2 4.2 5.3999999999999995 9.0 1 1 3335
3336 2 4.2 5.3999999999999995 9.6 1 1 3336
3337 2 4.2 5.3999999999999995 10.2 1 1 3337
3338 2 4.2 5.3999999999999995 10.799999999999999 1 1 3338
3339 2 4.2 6.0 3.0 1 1 3339
3340 2 4.2 6.0 3.5999999999999996 1 1 3340
3341 2 4.2 6.0 4.2 1 1 3341
3342 2 4.2 6.0 4.8 1 1 3342
3343 2 4.2 6.0 5.3999999999999995 1 1 3343
3344 2 4.2 6.0 6.0 1 1 3344
3345 2 4.2 6.0 7.199999999999999 1 1 3345
3346 2 4.2 6.0 7.8 1 1 3346
3347 2 4.2 6.0 8.4 1 1 3347
3348 2 4.2 6.0 9.0 1 1 3348
3349 2 4.2 6.0 9.6 1 1 3349
3350 2 4.2 6.0 10.2 1 1 3350
3351 2 4.2 6.0 10.799999999999999 1 1 3351
3352 2 4.2 6.6 2.4 1 1 3352
3353 2 4.2 6.6 3.0 1 1 3353
3354 2 4.2 6.6 3.5999999999999996 1 1 3354
3355 2 4.2 6.6 4.2 1 1 3355
3356 2 4.2 6.6 4.8 1 1 3356
3357 2 4.2 6.6 5.3999999999999995 1 1 3357
3358 2 4.2 6.6 6.6 1 1 3358
3359 2 4.2 6.6 7.199999999999999 1 1 3359
3360 2 4.2 6.6 7.8 1 1 3360
3361 2 4.2 6.6 8.4 1 1 3361
3362 2 4.2 6.6 9.0 1 1 3362
3363 2 4.2 6.6 9.6 1 1 3363
3364 2 4.2 6.6 10.2 1 1 3364
3365 2 4.2 6.6 10.799999999999999 1 1 3365
3366 2 4.2 7.199999999999999 3.0 1 1 3366
3367 2 4.2 7.199999999999999 4.2 1 1 3367
3368 2 4.2 7.199999999999999 4.8 1 1 3368
3369 2 4.2 7.199999999999999 5.3999999999999995 1 1 3369
3370 2 4.2 7.199999999999999 6.0 1 1 3370
3371 2 4.2 7.199999999999999 6.6 1 1 3371
3372 2 4.2 7.199999999999999 7.199999999999999 1 1 3372
3373 2 4.2 7.199999999999999 7.8 1 1 3373
3374 2 4.2 7.199999999999999 8.4 1 1 3374
3375 2 4.2 7.199999999999999 9.0 1 1 3375
3376 2 4.2 7.199999999999999 9.6 1 1 3376
3377 2 4.2 7.199999999999999 10.2 1 1 3377
3378 2 4.2 7.199999999999999 10.799999999999999 1 1 3378
3379 2 4.2 7.8 2.4 1 1 3379
3380 2 4.2 7.8 3.0 1 1 3380
3381 2 4.2 7.8 3.5999999999999996 1 1 3381
3382 2 4.2 7.8 4.2 1 1 3382
3383 2 4.2 7.8 5.3999999999999995 1 1 3383
3384 2 4.2 7.8 6.0 1 1 3384
3385 2 4.2 7.8 6.6 1 1 3385
3386 2 4.2 7.8 7.199999999999999 1 1 3386
3387 2 4.2 7.8 7.8 1 1 3387
3388 2 4.2 7.8 8.4 1 1 3388
3389 2 4.2 7.8 9.0 1 1 3389
3390 2 4.2 7.8 9.6 1 1 3390
3391 2 4.2 7.8 10.2 1 1 3391
3392 2 4.2 7.8 10.799999999999999 1 1 3392
3393 2 4.2 8.4 2.4 1 1 3393
3394 2 4.2 8.4 3.0 1 1 3394
3395 2 4.2 8.4 3.5999999999999996 1 1 3395
3396 2 4.2 8.4 4.2 1 1 3396
3397 2 4.2 8.4 4.8 1 1 3397
3398 2 4.2 8.4 5.3999999999999995 1 1 3398
3399 2 4.2 8.4 6.0 1 1 3399
3400 2 4.2 8.4 6.6 1 1 3400
3401 2 4.2 8.4 7.199999999999999 1 1 3401
3402 2 4.2 8.4 7.8 1 1 3402
3403 2 4.2 8.4 9.6 1 1 3403
3404 2 4.2 8.4 10.2 1 1 3404
3405 2 4.2 8.4 10.799999999999999 1 1 3405
3406 2 4.2 9.0 3.0 1 1 3406
3407 2 4.2 9.0 3.5999999999999996 1 1 3407
3408 2 4.2 9.0 4.2 1 1 3408
3409 2 4.2 9.0 4.8 1 1 3409
3410 2 4.2 9.0 5.3999999999999995 1 1 3410
3411 2 4.2 9.0 6.0 1 1 3411
3412 2 4.2 9.0 7.199999999999999 1 1 3412
3413 2 4.2 9.0 7.8 1 1 3413
3414 2 4.2 9.0 8.4 1 1 3414
3415 2 4.2 9.0 9.0 1 1 3415
3416 2 4.2 9.0 9.6 1 1 3416
3417 2 4.2 9.0 10.2 1 1 3417
3418 2 4.2 9.6 3.5999999999999996 1 1 3418
3419 2 4.2 9.6 4.2 1 1 3419
3420 2 4.2 9.6 4.8 1 1 3420
3421 2 4.2 9.6 5.3999999999999995 1 1 3421
3422 2 4.2 9.6 6.0 1 1 3422
3423 2 4.2 9.6 6.6 1 1 3423
3424 2 4.2 9.6 7.199999999999999 1 1 3424
3425 2 4.2 9.6 7.8 1 1 3425
3426 2 4.2 9.6 8.4 1 1 3426
3427 2 4.2 9.6 9.0 1 1 3427
3428 2 4.2 9.6 9.6 1 1 3428
3429 2 4.2 9.6 10.2 1 1 3429
3430 2 4.2 10.2 3.5999999999999996 1 1 3430
3431 2 4.2 10.2 4.2 1 1 3431
3432 2 4.2 10.2 4.8 1 1 3432
3433 2 4.2 10.2 5.3999999999999995 1 1 3433
3434 2 4.2 10.2 6.0 1 1 3434
3435 2 4.2 10.2 6.6 1 1 3435
3436 2 4.2 10.2 7.199999999999999 1 1 3436
3437 2 4.2 10.2 7.8 1 1 3437
3438 2 4.2 10.2 8.4 1 1 3438
3439 2 4.2 10.2 9.0 1 1 3439
3440 2 4.2 10.2 9.6 1 1 3440
3441 2 4.2 10.799999999999999 5.3999999999999995 1 1 3441
3442 2 4.2 10.799999999999999 6.0 1 1 3442
3443 2 4.2 10.799999999999999 6.6 1 1 3443
3444 2 4.2 10.799999999999999 7.199999999999999 1 1 3444
3445 2 4.2 10.799999999999999 7.8 1 1 3445
3446 2 4.8 2.4 5.3999999999999995 1 1 3446
3447 2 4.8 2.4 6.0 1 1 3447
3448 2 4.8 2.4 6.6 1 1 3448
3449 2 4.8 2.4 7.199999999999999 1 1 3449
3450 2 4.8 2.4 7.8 1 1 3450
3451 2 4.8 2.4 8.4 1 1 3451
3452 2 4.8 3.0 4.2 1 1 3452
3453 2 4.8 3.0 4.8 1 1 3453
3454 2 4.8 3.0 5.3999999999999995 1 1 3454
3455 2 4.8 3.0 6.0 1 1 3455
3456 2 4.8 3.0 6.6 1 1 3456
3457 2 4.8 3.0 7.199999999999999 1 1 3457
3458 2 4.8 3.0 7.8 1 1 3458
3459 2 4.8 3.0 8.4 1 1 3459
3460 2 4.8 3.0 9.0 1 1 3460
3461 2 4.8 3.5999999999999996 3.5999999999999996 1 1 3461
3462 2 4.8 3.5999999999999996 4.2 1 1 3462
3463 2 4.8 3.5999999999999996 4.8 1 1 3463
3464 2 4.8 3.5999999999999996 5.3999999999999995 1 1 3464
3465 2 4.8 3.5999999999999996 6.0 1 1 3465
3466 2 4.8 3.5999999999999996 6.6 1 1 3466
3467 2 4.8 3.5999999999999996 7.199999999999999 1 1 3467
3468 2 4.8 3.5999999999999996 8.4 1 1 3468
3469 2 4.8 3.5999999999999996 9.0 1 1 3469
3470 2 4.8 3.5999999999999996 9.6 1 1 3470
3471 2 4.8 3.5999999999999996 10.2 1 1 3471
3472 2 4.8 4.2 3.0 1 1 3472
3473 2 4.8 4.2 3.5999999999999996 1 1 3473
3474 2 4.8 4.2 4.2 1 1 3474
3475 2 4.8 4.2 5.3999999999999995 1 1 3475
3476 2 4.8 4.2 6.0 1 1 3476
3477 2 4.8 4.2 6.6 1 1 3477
3478 2 4.8 4.2 7.199999999999999 1 1 3478
3479 2 4.8 4.2 7.8 1 1 3479
3480 2 4.8 4.2 8.4 1 1 3480
3481 2 4.8 4.2 9.0 1 1 3481
3482 2 4.8 4.2 9.6 1 1 3482
3483 2 4.8 4.2 10.2 1 1 3483
3484 2 4.8 4.8 3.0 1 1 3484
3485 2 4.8 4.8 3.5999999999999996 1 1 3485
3486 2 4.8 4.8 4.8 1 1 3486
3487 2 4.8 4.8 5.3999999999999995 1 1 3487
3488 2 4.8 4.8 6.0 1 1 3488
3489 2 4.8 4.8 6.6 1 1 3489
3490 2 4.8 4.8 7.199999999999999 1 1 3490
3491 2 4.8 4.8 7.8 1 1 3491
3492 2 4.8 4.8 8.4 1 1 3492
3493 2 4.8 4.8 9.0 1 1 3493
3494 2 4.8 4.8 9.6 1 1 3494
3495 2 4.8 4.8 10.2 1 1 3495
3496 2 4.8 4.8 10.799999999999999 1 1 3496
3497 2 4.8 5.3999999999999995 2.4 1 1 3497
3498 2 4.8 5.3999999999999995 3.0 1 1 3498
3499 2 4.8 5.3999999999999995 3.5999999999999996 1 1 3499
3500 2 4.8 5.3999999999999995 4.8 1 1 3500
3501 2 4.8 5.3999999999999995 5.3999999999999995 1 1 3501
3502 2 4.8 5.3999999999999995 6.0 1 1 3502
3503 2 4.8 5.3999999999999995 6.6 1 1 3503
3504 2 4.8 5.3999999999999995 7.199999999999999 1 1 3504
3505 2 4.8 5.3999999999999995 7.8 1 1 3505
3506 2 4.8 5.3999999999999995 8.4 1 1 3506
3507 2 4.8 5.3999999999999995 9.0 1 1 3507
3508 2 4.8 5.3999999999999995 9.6 1 1 3508
3509 2 4.8 5.3999999999999995 10.2 1 1 3509
3510 2 4.8 5.3999999999999995 10.799999999999999 1 1 3510
3511 2 4.8 6.0 2.4 1 1 3511
3512 2 4.8 6.0 3.0 1 1 3512
3513 2 4.8 6.0 3.5999999999999996 1 1 3513
3514 2 4.8 6.0 4.2 1 1 3514
3515 2 4.8 6.0 4.8 1 1 3515
3516 2 4.8 6.0 5.3999999999999995 1 1 3516
3517 2 4.8 6.0 6.0 1 1 3517
3518 2 4.8 6.0 6.6 1 1 3518
3519 2 4.8 6.0 7.199999999999999 1 1 3519
3520 2 4.8 6.0 7.8 1 1 3520
3521 2 4.8 6.0 8.4 1 1 3521
3522 2 4.8 6.0 9.0 1 1 3522
3523 2 4.8 6.0 9.6 1 1 3523
3524 2 4.8 6.0 10.2 1 1 3524
3525 2 4.8 6.6 2.4 1 1 3525
3526 2 4.8 6.6 3.0 1 1 3526
3527 2 4.8 6.6 3.5999999999999996 1 1 3527
3528 2 4.8 6.6 4.8 1 1 3528
3529 2 4.8 6.6 5.3999999999999995 1 1 3529
3530 2 4.8 6.6 6.0 1 1 3530
3531 2 4.8 6.6 6.6 1 1 3531
3532 2 4.8 6.6 7.199999999999999 1 1 3532
3533 2 4.8 6.6 8.4 1 1 3533
3534 2 4.8 6.6 9.0 1 1 3534
3535 2 4.8 6.6 9.6 1 1 3535
3536 2 4.8 6.6 10.2 1 1 3536
3537 2 4.8 6.6 10.799999999999999 1 1 3537
3538 2 4.8 7.199999999999999 2.4 1 1 3538
3539 2 4.8 7.199999999999999 3.0 1 1 3539
3540 2 4.8 7.199999999999999 3.5999999999999996 1 1 3540
3541 2 4.8 7.199999999999999 4.2 1 1 3541
3542 2 4.8 7.199999999999999 4.8 1 1 3542
3543 2 4.8 7.199999999999999 5.3999999999999995 1 1 3543
3544 2 4.8 7.199999999999999 6.0 1 1 3544
3545 2 4.8 7.199999999999999 6.6 1 1 3545
3546 2 4.8 7.199999999999999 7.199999999999999 1 1 3546
3547 2 4.8 7.199999999999999 7.8 1 1 3547
3548 2 4.8 7.199999999999999 8.4 1 1 3548
3549 2 4.8 7.199999999999999 9.0 1 1 3549
3550 2 4.8 7.199999999999999 9.6 1 1 3550
3551 2 4.8 7.199999999999999 10.2 1 1 3551
3552 2 4.8 7.199999999999999 10.799999999999999 1 1 3552
3553 2 4.8 7.8 2.4 1 1 3553
3554 2 4.8 7.8 3.0 1 1 3554
3555 2 4.8 7.8 3.5999999999999996 1 1 3555
3556 2 4.8 7.8 4.2 1 1 3556
3557 2 4.8 7.8 4.8 1 1 3557
3558 2 4.8 7.8 5.3999999999999995 1 1 3558
3559 2 4.8 7.8 6.0 1 1 3559
3560 2 4.8 7.8 6.6 1 1 3560
3561 2 4.8 7.8 7.199999999999999 1 1 3561
3562 2 4.8 7.8 7.8 1 1 3562
3563 2 4.8 7.8 8.4 1 1 3563
3564 2 4.8 7.8 9.6 1 1 3564
3565 2 4.8 7.8 10.2 1 1 3565
3566 2 4.8 7.8 10.799999999999999 1 1 3566
3567 2 4.8 8.4 2.4 1 1 3567
3568 2 4.8 8.4 3.0 1 1 3568
3569 2 4.8 8.4 3.5999999999999996 1 1 3569
3570 2 4.8 8.4 4.2 1 1 3570
3571 2 4.8 8.4 4.8 1 1 3571
3572 2 4.8 8.4 6.0 1 1 3572
3573 2 4.8 8.4 6.6 1 1 3573
3574 2 4.8 8.4 7.199999999999999 1 1 3574
3575 2 4.8 8.4 7.8 1 1 3575
3576 2 4.8 8.4 8.4 1 1 3576
3577 2 4.8 8.4 9.0 1 1 3577
3578 2 4.8 8.4 9.6 1 1 3578
3579 2 4.8 8.4 10.2 1 1 3579
3580 2 4.8 8.4 10.799999999999999 1 1 3580
3581 2 4.8 9.0 3.0 1 1 3581
3582 2 4.8 9.0 3.5999999999999996 1 1 3582
3583 2 4.8 9.0 4.2 1 1 3583
3584 2 4.8 9.0 4.8 1 1 3584
3585 2 4.8 9.0 5.3999999999999995 1 1 3585
3586 2 4.8 9.0 6.0 1 1 3586
3587 2 4.8 9.0 6.6 1 1 3587
3588 2 4.8 9.0 7.199999999999999 1 1 3588
3589 2 4.8 9.0 7.8 1 1 3589
3590 2 4.8 9.0 9.0 1 1 3590
3591 2 4.8 9.0 9.6 1 1 3591
3592 2 4.8 9.0 10.2 1 1 3592
3593 2 4.8 9.6 3.5999999999999996 1 1 3593
3594 2 4.8 9.6 4.2 1 1 3594
3595 2 4.8 9.6 4.8 1 1 3595
3596 2 4.8 9.6 5.3999999999999995 1 1 3596
3597 2 4.8 9.6 6.0 1 1 3597
3598 2 4.8 9.6 6.6 1 1 3598
3599 2 4.8 9.6 7.199999999999999 1 1 3599
3600 2 4.8 9.6 7.8 1 1 3600
3601 2 4.8 9.6 8.4 1 1 3601
3602 2 4.8 9.6 9.0 1 1 3602
3603 2 4.8 9.6 9.6 1 1 3603
3604 2 4.8 9.6 10.2 1 1 3604
3605 2 4.8 10.2 3.5999999999999996 1 1 3605
3606 2 4.8 10.2 4.2 1 1 3606
3607 2 4.8 10.2 4.8 1 1 3607
3608 2 4.8 10.2 6.0 1 1 3608
3609 2 4.8 10.2 6.6 1 1 3609
3610 2 4.8 10.2 7.8 1 1 3610
3611 2 4.8 10.2 8.4 1 1 3611
3612 2 4.8 10.2 9.0 1 1 3612
3613 2 4.8 10.2 9.6 1 1 3613
3614 2 4.8 10.799999999999999 4.8 1 1 3614
3615 2 4.8 10.799999999999999 6.0 1 1 3615
3616 2 4.8 10.799999999999999 6.6 1 1 3616
3617 2 4.8 10.799999999999999 7.199999999999999 1 1 3617
3618 2 4.8 10.799999999999999 7.8 1 1 3618
3619 2 4.8 10.799999999999999 8.4 1 1 3619
3620 2 5.3999999999999995 2.4 5.3999999999999995 1 1 3620
3621 2 5.3999999999999995 2.4 6.0 1 1 3621
3622 2 5.3999999999999995 2.4 6.6 1 1 3622
3623 2 5.3999999999999995 2.4 7.199999999999999 1 1 3623
3624 2 5.3999999999999995 2.4 7.8 1 1 3624
3625 2 5.3999999999999995 2.4 8.4 1 1 3625
3626 2 5.3999999999999995 3.0 4.2 1 1 3626
3627 2 5.3999999999999995 3.0 4.8 1 1 3627
3628 2 5.3999999999999995 3.0 5.3999999999999995 1 1 3628
3629 2 5.3999999999999995 3.0 6.0 1 1 3629
3630 2 5.3999999999999995 3.0 6.6 1 1 3630
3631 2 5.3999999999999995 3.0 7.199999999999999 1 1 3631
3632 2 5.3999999999999995 3.0 7.8 1 1 3632
3633 2 5.3999999999999995 3.0 8.4 1 1 3633
3634 2 5.3999999999999995 3.5999999999999996 4.2 1 1 3634
3635 2 5.3999999999999995 3.5999999999999996 4.8 1 1 3635
3636 2 5.3999999999999995 3.5999999999999996 5.3999999999999995 1 1 3636
3637 2 5.3999999999999995 3.5999999999999996 6.0 1 1 3637
3638 2 5.3999999999999995 3.5999999999999996 6.6 1 1 3638
3639 2 5.3999999999999995 3.5999999999999996 7.199999999999999 1 1 3639
3640 2 5.3999999999999995 3.5999999999999996 7.8 1 1 3640
3641 2 5.3999999999999995 3.5999999999999996 8.4 1 1 3641
3642 2 5.3999999999999995 3.5999999999999996 9.0 1 1 3642
3643 2 5.3999999999999995 3.5999999999999996 10.2 1 1 3643
3644 2 5.3999999999999995 4.2 3.0 1 1 3644
3645 2 5.3999999999999995 4.2 3.5999999999999996 1 1 3645
3646 2 5.3999999999999995 4.2 4.2 1 1 3646
3647 2 5.3999999999999995 4.2 4.8 1 1 3647
3648 2 5.3999999999999995 4.2 5.3999999999999995 1 1 3648
3649 2 5.3999999999999995 4.2 6.0 1 1 3649
3650 2 5.3999999999999995 4.2 6.6 1 1 3650
3651 2 5.3999999999999995 4.2 7.199999999999999 1 1 3651
3652 2 5.3999999999999995 4.2 7.8 1 1 3652
3653 2 5.3999999999999995 4.2 9.6 1 1 3653
3654 2 5.3999999999999995 4.2 10.2 1 1 3654
3655 2 5.3999999999999995 4.8 3.5999999999999996 1 1 3655
3656 2 5.3999999999999995 4.8 4.2 1 1 3656
3657 2 5.3999999999999995 4.8 4.8 1 1 3657
3658 2 5.3999999999999995 4.8 5.3999999999999995 1 1 3658
3659 2 5.3999999999999995 4.8 6.0 1 1 3659
3660 2 5.3999999999999995 4.8 6.6 1 1 3660
3661 2 5.3999999999999995 4.8 7.199999999999999 1 1 3661
3662 2 5.3999999999999995 4.8 7.8 1 1 3662
3663 2 5.3999999999999995 4.8 8.4 1 1 3663
3664 2 5.3999999999999995 4.8 9.6 1 1 3664
3665 2 5.3999999999999995 4.8 10.2 1 1 3665
3666 2 5.3999999999999995 4.8 10.799999999999999 1 1 3666
3667 2 5.3999999999999995 5.3999999999999995 2.4 1 1 3667
3668 2 5.3999999999999995 5.3999999999999995 3.0 1 1 3668
3669 2 5.3999999999999995 5.3999999999999995 3.5999999999999996 1 1 3669
3670 2 5.3999999999999995 5.3999999999999995 4.2 1 1 3670
3671 2 5.3999999999999995 5.3999999999999995 4.8 1 1 3671
3672 2 5.3999999999999995 5.3999999999999995 6.0 1 1 3672
3673 2 5.3999999999999995 5.3999999999999995 6.6 1 1 3673
3674 2 5.3999999999999995 5.3999999999999995 7.199999999999999 1 1 3674
3675 2 5.3999999999999995 5.3999999999999995 7.8 1 1 3675
3676 2 5.3999999999999995 5.3999999999999995 8.4 1 1 3676
3677 2 5.3999999999999995 5.3999999999999995 9.0 1 1 3677
3678 2 5.3999999999999995 5.3999999999999995 9.6 1 1 3678
3679 2 5.3999999999999995 5.3999999999999995 10.2 1 1 3679
3680 2 5.3999999999999995 6.0 2.4 1 1 3680
3681 2 5.3999999999999995 6.0 3.0 1 1 3681
3682 2 5.3999999999999995 6.0 3.5999999999999996 1 1 3682
3683 2 5.3999999999999995 6.0 4.2 1 1 3683
3684 2 5.3999999999999995 6.0 4.8 1 1 3684
3685 2 5.3999999999999995 6.0 5.3999999999999995 1 1 3685
3686 2 5.3999999999999995 6.0 6.0 1 1 3686
3687 2 5.3999999999999995 6.0 6.6 1 1 3687
3688 2 5.3999999999999995 6.0 7.199999999999999 1 1 3688
3689 2 5.3999999999999995 6.0 7.8 1 1 3689
3690 2 5.3999999999999995 6.0 8.4 1 1 3690
3691 2 5.3999999999999995 6.0 9.0 1 1 3691
3692 2 5.3999999999999995 6.0 9.6 1 1 3692
3693 2 5.3999999999999995 6.0 10.2 1 1 3693
3694 2 5.3999999999999995 6.0 10.799999999999999 1 1 3694
3695 2 5.3999999999999995 6.6 3.0 1 1 3695
3696 2 5.3999999999999995 6.6 3.5999999999999996 1 1 3696
3697 2 5.3999999999999995 6.6 4.2 1 1 3697
3698 2 5.3999999999999995 6.6 5.3999999999999995 1 1 3698
3699 2 5.3999999999999995 6.6 6.0 1 1 3699
3700 2 5.3999999999999995 6.6 6.6 1 1 3700
3701 2 5.3999999999999995 6.6 7.8 1 1 3701
3702 2 5.3999999999999995 6.6 8.4 1 1 3702
3703 2 5.3999999999999995 6.6 9.0 1 1 3703
3704 2 5.3999999999999995 6.6 9.6 1 1 3704
3705 2 5.3999999999999995 6.6 10.2 1 1 3705
3706 2 5.3999999999999995 6.6 10.799999999999999 1 1 3706
3707 2 5.423812981664549 7.175809583979983 2.3505251005355 1 1 3707
3708 2 5.3999999999999995 7.199999999999999 3.0 1 1 3708
3709 2 5.3999999999999995 7.199999999999999 3.5999999999999996 1 1 3709
3710 2 5.3999999999999995 7.199999999999999 4.2 1 1 3710
3711 2 5.3999999999999995 7.199999999999999 4.8 1 1 3711
3712 2 5.3999999999999995 7.199999999999999 5.3999999999999995 1 1 3712
3713 2 5.3999999999999995 7.199999999999999 6.0 1 1 3713
3714 2 5.3999999999999995 7.199999999999999 6.6 1 1 3714
3715 2 5.3999999999999995 7.199999999999999 7.199999999999999 1 1 3715
3716 2 5.3999999999999995 7.199999999999999 7.8 1 1 3716
3717 2 5.3999999999999995 7.199999999999999 8.4 1 1 3717
3718 2 5.3999999999999995 7.199999999999999 10.2 1 1 3718
3719 2 5.3999999999999995 7.199999999999999 10.799999999999999 1 1 3719
3720 2 5.3999999999999995 7.8 2.4 1 1 3720
3721 2 5.3999999999999995 7.8 3.0 1 1 3721
3722 2 5.3999999999999995 7.8 3.5999999999999996 1 1 3722
3723 2 5.3999999999999995 7.8 4.2 1 1 3723
3724 2 5.3999999999999995 7.8 5.3999999999999995 1 1 3724
3725 2 5.3999999999999995 7.8 6.0 1 1 3725
3726 2 5.3999999999999995 7.8 6.6 1 1 3726
3727 2 5.3999999999999995 7.8 7.199999999999999 1 1 3727
3728 2 5.3999999999999995 7.8 7.8 1 1 3728
3729 2 5.3999999999999995 7.8 8.4 1 1 3729
3730 2 5.3999999999999995 7.8 9.0 1 1 3730
3731 2 5.3999999999999995 7.8 9.6 1 1 3731
3732 2 5.3999999999999995 7.8 10.2 1 1 3732
3733 2 5.3999999999999995 7.8 10.799999999999999 1 1 3733
3734 2 5.3999999999999995 8.4 2.4 1 1 3734
3735 2 5.3999999999999995 8.4 3.0 1 1 3735
3736 2 5.3999999999999995 8.4 3.5999999999999996 1 1 3736
3737 2 5.3999999999999995 8.4 4.2 1 1 3737
3738 2 5.3999999999999995 8.4 6.0 1 1 3738
3739 2 5.3999999999999995 8.4 6.6 1 1 3739
3740 2 5.3999999999999995 8.4 7.199999999999999 1 1 3740
3741 2 5.3999999999999995 8.4 7.8 1 1 3741
3742 2 5.3999999999999995 8.4 8.4 1 1 3742
3743 2 5.3999999999999995 8.4 9.0 1 1 3743
3744 2 5.3999999999999995 8.4 9.6 1 1 3744
3745 2 5.3999999999999995 8.4 10.2 1 1 3745
3746 2 5.3999999999999995 8.4 10.799999999999999 1 1 3746
3747 2 5.3999999999999995 9.0 3.0 1 1 3747
3748 2 5.3999999999999995 9.0 3.5999999999999996 1 1 3748
3749 2 5.3999999999999995 9.0 4.8 1 1 3749
3750 2 5.3999999999999995 9.0 5.3999999999999995 1 1 3750
3751 2 5.3999999999999995 9.0 6.0 1 1 3751
3752 2 5.3999999999999995 9.0 7.199999999999999 1 1 3752
3753 2 5.3999999999999995 9.0 7.8 1 1 3753
3754 2 5.3999999999999995 9.0 8.4 1 1 3754
3755 2 5.3999999999999995 9.0 9.6 1 1 3755
3756 2 5.3999999999999995 9.0 10.2 1 1 3756
3757 2 5.3999999999999995 9.6 3.5999999999999996 1 1 3757
3758 2 5.3999999999999995 9.6 4.2 1 1 3758
3759 2 5.3999999999999995 9.6 4.8 1 1 3759
3760 2 5.3999999999999995 9.6 5.3999999999999995 1 1 3760
3761 2 5.3999999999999995 9.6 6.0 1 1 3761
3762 2 5.3999999999999995 9.6 6.6 1 1 3762
3763 2 5.3999999999999995 9.6 7.199999999999999 1 1 3763
3764 2 5.3999999999999995 9.6 7.8 1 1 3764
3765 2 5.3999999999999995 9.6 8.4 1 1 3765
3766 2 5.3999999999999995 9.6 9.0 1 1 3766
3767 2 5.3999999999999995 9.6 9.6 1 1 3767
3768 2 5.3999999999999995 9.6 10.2 1 1 3768
3769 2 5.3999999999999995 10.2 3.5999999999999996 1 1 3769
3770 2 5.3999999999999995 10.2 4.2 1 1 3770
3771 2 5.3999999999999995 10.2 4.8 1 1 3771
3772 2 5.3999999999999995 10.2 5.3999999999999995 1 1 3772
3773 2 5.3999999999999995 10.2 6.0 1 1 3773
3774 2 5.3999999999999995 10.2 6.6 1 1 3774
3775 2 5.3999999999999995 10.2 7.8 1 1 3775
3776 2 5.3999999999999995 10.2 8.4 1 1 3776
3777 2 5.3999999999999995 10.2 9.0 1 1 3777
3778 2 5.3999999999999995 10.2 9.6 1 1 3778
3779 2 5.3999999999999995 10.799999999999999 4.8 1 1 3779
3780 2 5.3999999999999995 10.799999999999999 5.3999999999999995 1 1 3780
3781 2 5.3999999999999995 10.799999999999999 6.0 1 1 3781
3782 2 5.3999999999999995 10.799999999999999 6.6 1 1 3782
3783 2 5.3999999999999995 10.799999999999999 7.199999999999999 1 1 3783
3784 2 5.3999999999999995 10.799999999999999 7.8 1 1 3784
3785 2 5.3999999999999995 10.799999999999999 8.4 1 1 3785
3786 2 6.0 2.4 5.3999999999999995 1 1 3786
3787 2 6.0 2.4 6.6 1 1 3787
3788 2 6.0 2.4 7.199999999999999 1 1 3788
3789 2 6.0 2.4 7.8 1 1 3789
3790 2 6.0 2.4 8.4 1 1 3790
3791 2 6.0 3.0 4.2 1 1 3791
3792 2 6.0 3.0 5.3999999999999995 1 1 3792
3793 2 6.0 3.0 6.0 1 1 3793
3794 2 6.0 3.0 7.199999999999999 1 1 3794
3795 2 6.0 3.0 7.8 1 1 3795
3796 2 6.0 3.0 8.4 1 1 3796
3797 2 6.0 3.0 9.0 1 1 3797
3798 2 6.0 3.5999999999999996 3.5999999999999996 1 1 3798
3799 2 6.0 3.5999999999999996 4.2 1 1 3799
3800 2 6.0 3.5999999999999996 4.8 1 1 3800
3801 2 6.0 3.5999999999999996 5.3999999999999995 1 1 3801
3802 2 6.0 3.5999999999999996 6.0 1 1 3802
3803 2 6.0 3.5999999999999996 6.6 1 1 3803
3804 2 6.0 3.5999999999999996 7.199999999999999 1 1 3804
3805 2 6.0 3.5999999999999996 8.4 1 1 3805
3806 2 6.0 3.5999999999999996 9.0 1 1 3806
3807 2 6.0 3.5999999999999996 9.6 1 1 3807
3808 2 6.0 3.5999999999999996 10.2 1 1 3808
3809 2 6.0 4.2 3.0 1 1 3809
3810 2 6.0 4.2 3.5999999999999996 1 1 3810
3811 2 6.0 4.2 4.2 1 1 3811
3812 2 6.0 4.2 4.8 1 1 3812
3813 2 6.0 4.2 5.3999999999999995 1 1 3813
3814 2 6.0 4.2 6.0 1 1 3814
3815 2 6.0 4.2 6.6 1 1 3815
3816 2 6.0 4.2 7.199999999999999 1 1 3816
3817 2 6.0 4.2 7.8 1 1 3817
3818 2 6.0 4.2 8.4 1 1 3818
3819 2 6.0 4.2 9.0 1 1 3819
3820 2 6.0 4.2 9.6 1 1 3820
3821 2 6.0 4.2 10.2 1 1 3821
3822 2 6.0 4.8 3.0 1 1 3822
3823 2 6.0 4.8 3.5999999999999996 1 1 3823
3824 2 6.0 4.8 4.2 1 1 3824
3825 2 6.0 4.8 4.8 1 1 3825
3826 2 6.0 4.8 5.3999999999999995 1 1 3826
3827 2 6.0 4.8 6.0 1 1 3827
3828 2 6.0 4.8 6.6 1 1 3828
3829 2 6.0 4.8 7.199999999999999 1 1 3829
3830 2 6.0 4.8 7.8 1 1 3830
3831 2 6.0 4.8 8.4 1 1 3831
3832 2 6.0 4.8 9.0 1 1 3832
3833 2 6.0 4.8 9.6 1 1 3833
3834 2 6.0 4.8 10.2 1 1 3834
3835 2 6.0 4.8 10.799999999999999 1 1 3835
3836 2 6.0 5.3999999999999995 2.4 1 1 3836
3837 2 6.0 5.3999999999999995 3.0 1 1 3837
3838 2 6.0 5.3999999999999995 4.2 1 1 3838
3839 2 6.0 5.3999999999999995 6.0 1 1 3839
3840 2 6.0 5.3999999999999995 6.6 1 1 3840
3841 2 6.0 5.3999999999999995 7.199999999999999 1 1 3841
3842 2 6.0 5.3999999999999995 7.8 1 1 3842
3843 2 6.0 5.3999999999999995 8.4 1 1 3843
3844 2 6.0 5.3999999999999995 9.0 1 1 3844
3845 2 6.0 5.3999999999999995 9.6 1 1 3845
3846 2 6.0 5.3999999999999995 10.799999999999999 1 1 3846
3847 2 6.0 6.0 2.4 1 1 3847
3848 2 6.0 6.0 3.0 1 1 3848
3849 2 6.0 6.0 3.5999999999999996 1 1 3849
3850 2 6.0 6.0 4.8 1 1 3850
3851 2 6.0 6.0 5.3999999999999995 1 1 3851
3852 2 6.0 6.0 6.0 1 1 3852
3853 2 6.0 6.0 6.6 1 1 3853
3854 2 6.0 6.0 7.199999999999999 1 1 3854
3855 2 6.0 6.0 7.8 1 1 3855
3856 2 6.0 6.0 9.0 1 1 3856
3857 2 6.0 6.0 9.6 1 1 3857
3858 2 6.0 6.0 10.2 1 1 3858
3859 2 6.0 6.0 10.799999999999999 1 1 3859
3860 2 6.0 6.6 3.0 1 1 3860
3861 2 6.0 6.6 3.5999999999999996 1 1 3861
3862 2 6.0 6.6 4.2 1 1 3862
3863 2 6.0 6.6 4.8 1 1 3863
3864 2 6.0 6.6 5.3999999999999995 1 1 3864
3865 2 6.0 6.6 6.0 1 1 3865
3866 2 6.0 6.6 6.6 1 1 3866
3867 2 6.0 6.6 7.199999999999999 1 1 3867
3868 2 6.0 6.6 8.4 1 1 3868
3869 2 6.0 6.6 9.0 1 1 3869
3870 2 6.0 6.6 9.6 1 1 3870
3871 2 6.0 6.6 10.2 1 1 3871
3872 2 6.0 6.6 10.799999999999999 1 1 3872
3873 2 6.0 7.199999999999999 3.0 1 1 3873
3874 2 6.0 7.199999999999999 3.5999999999999996 1 1 3874
3875 2 6.0 7.199999999999999 4.2 1 1 3875
3876 2 6.0 7.199999999999999 4.8 1 1 3876
3877 2 6.0 7.199999999999999 5.3999999999999995 1 1 3877
3878 2 6.0 7.199999999999999 6.0 1 1 3878
3879 2 6.0 7.199999999999999 6.6 1 1 3879
3880 2 6.0 7.199999999999999 7.199999999999999 1 1 3880
3881 2 6.0 7.199999999999999 7.8 1 1 3881
3882 2 6.0 7.199999999999999 8.4 1 1 3882
3883 2 6.0 7.199999999999999 9.0 1 1 3883
3884 2 6.0 7.199999999999999 9.6 1 1 3884
3885 2 6.0 7.199999999999999 10.2 1 1 3885
3886 2 6.0 7.199999999999999 10.799999999999999 1 1 3886
3887 2 6.0 7.8 2.4 1 1 3887
3888 2 6.0 7.8 3.0 1 1 3888
3889 2 6.0 7.8 3.5999999999999996 1 1 3889
3890 2 6.0 7.8 4.2 1 1 3890
3891 2 6.0 7.8 4.8 1 1 3891
3892 2 6.0 7.8 5.3999999999999995 1 1 3892
3893 2 6.0 7.8 6.0 1 1 3893
3894 2 6.0 7.8 6.6 1 1 3894
3895 2 6.0 7.8 7.199999999999999 1 1 3895
3896 2 6.0 7.8 7.8 1 1 3896
3897 2 6.0 7.8 8.4 1 1 3897
3898 2 6.0 7.8 10.2 1 1 3898
3899 2 6.0 7.8 10.799999999999999 1 1 3899
3900 2 6.0 8.4 2.4 1 1 3900
3901 2 6.0 8.4 4.8 1 1 3901
3902 2 6.0 8.4 5.3999999999999995 1 1 3902
3903 2 6.0 8.4 6.0 1 1 3903
3904 2 6.0 8.4 6.6 1 1 3904
3905 2 6.0 8.4 8.4 1 1 3905
3906 2 6.0 8.4 9.0 1 1 3906
3907 2 6.0 8.4 9.6 1 1 3907
3908 2 6.0 8.4 10.2 1 1 3908
3909 2 6.0 8.4 10.799999999999999 1 1 3909
3910 2 6.023812981664549 8.975809583979983 2.9505251005355 1 1 3910
3911 2 6.0 9.0 3.5999999999999996 1 1 3911
3912 2 6.0 9.0 4.2 1 1 3912
3913 2 6.0 9.0 4.8 1 1 3913
3914 2 6.0 9.0 5.3999999999999995 1 1 3914
3915 2 6.0 9.0 6.6 1 1 3915
3916 2 6.0 9.0 7.199999999999999 1 1 3916
3917 2 6.0 9.0 7.8 1 1 3917
3918 2 6.0 9.0 8.4 1 1 3918
3919 2 6.0 9.0 9.0 1 1 3919
3920 2 6.0 9.0 10.2 1 1 3920
3921 2 6.0 9.6 3.5999999999999996 1 1 3921
3922 2 6.0 9.6 4.2 1 1 3922
3923 2 6.0 9.6 4.8 1 1 3923
3924 2 6.0 9.6 6.0 1 1 3924
3925 2 6.0 9.6 6.6 1 1 3925
3926 2 6.0 9.6 9.0 1 1 3926
3927 2 6.0 9.6 9.6 1 1 3927
3928 2 6.0 9.6 10.2 1 1 3928
3929 2 6.0 10.2 3.5999999999999996 1 1 3929
3930 2 6.0 10.2 4.2 1 1 3930
3931 2 6.0 10.2 4.8 1 1 3931
3932 2 6.0 10.2 5.3999999999999995 1 1 3932
3933 2 6.0 10.2 6.0 1 1 3933
3934 2 6.0 10.2 6.6 1 1 3934
3935 2 6.0 10.2 7.199999999999999 1 1 3935
3936 2 6.0 10.2 7.8 1 1 3936
3937 2 6.0 10.2 9.0 1 1 3937
3938 2 6.0 10.2 9.6 1 1 3938
3939 2 6.0 10.799999999999999 4.8 1 1 3939
3940 2 6.0 10.799999999999999 6.0 1 1 3940
3941 2 6.0 10.799999999999999 6.6 1 1 3941
3942 2 6.0 10.799999999999999 7.199999999999999 1 1 3942
3943 2 6.0 10.799999999999999 7.8 1 1 3943
3944 2 6.0 10.799999999999999 8.4 1 1 3944
3945 2 6.6 2.4 5.3999999999999995 1 1 3945
3946 2 6.6 2.4 6.0 1 1 3946
3947 2 6.6 2.4 6.6 1 1 3947
3948 2 6.6 2.4 7.199999999999999 1 1 3948
3949 2 6.6 2.4 7.8 1 1 3949
3950 2 6.6 2.4 8.4 1 1 3950
3951 2 6.6 3.0 4.2 1 1 3951
3952 2 6.6 3.0 5.3999999999999995 1 1 3952
3953 2 6.6 3.0 6.0 1 1 3953
3954 2 6.6 3.0 6.6 1 1 3954
3955 2 6.6 3.0 7.199999999999999 1 1 3955
3956 2 6.6 3.0 8.4 1 1 3956
3957 2 6.6 3.0 9.0 1 1 3957
3958 2 6.6 3.5999999999999996 3.5999999999999996 1 1 3958
3959 2 6.6 3.5999999999999996 4.2 1 1 3959
3960 2 6.6 3.5999999999999996 4.8 1 1 3960
3961 2 6.6 3.5999999999999996 5.3999999999999995 1 1 3961
3962 2 6.6 3.5999999999999996 6.0 1 1 3962
3963 2 6.6 3.5999999999999996 6.6 1 1 3963
3964 2 6.6 3.5999999999999996 7.199999999999999 1 1 3964
3965 2 6.6 3.5999999999999996 7.8 1 1 3965
3966 2 6.6 3.5999999999999996 8.4 1 1 3966
3967 2 6.6 3.5999999999999996 9.0 1 1 3967
3968 2 6.6 3.5999999999999996 9.6 1 1 3968
3969 2 6.6 3.5999999999999996 10.2 1 1 3969
3970 2 6.6 4.2 3.0 1 1 3970
3971 2 6.6 4.2 3.5999999999999996 1 1 3971
3972 2 6.6 4.2 4.2 1 1 3972
3973 2 6.6 4.2 5.3999999999999995 1 1 3973
3974 2 6.6 4.2 6.0 1 1 3974
3975 2 6.6 4.2 6.6 1 1 3975
3976 2 6.6 4.2 7.199999999999999 1 1 3976
3977 2 6.6 4.2 7.8 1 1 3977
3978 2 6.6 4.2 8.4 1 1 3978
3979 2 6.6 4.2 9.0 1 1 3979
3980 2 6.6 4.2 9.6 1 1 3980
3981 2 6.6 4.2 10.2 1 1 3981
3982 2 6.6 4.8 3.0 1 1 3982
3983 2 6.6 4.8 3.5999999999999996 1 1 3983
3984 2 6.6 4.8 4.2 1 1 3984
3985 2 6.6 4.8 4.8 1 1 3985
3986 2 6.6 4.8 5.3999999999999995 1 1 3986
3987 2 6.6 4.8 6.0 1 1 3987
3988 2 6.6 4.8 6.6 1 1 3988
3989 2 6.6 4.8 7.199999999999999 1 1 3989
3990 2 6.6 4.8 7.8 1 1 3990
3991 2 6.6 4.8 8.4 1 1 3991
3992 2 6.6 4.8 9.0 1 1 3992
3993 2 6.6 4.8 9.6 1 1 3993
3994 2 6.6 4.8 10.2 1 1 3994
3995 2 6.6 4.8 10.799999999999999 1 1 3995
3996 2 6.6 5.3999999999999995 2.4 1 1 3996
3997 2 6.6 5.3999999999999995 3.0 1 1 3997
3998 2 6.6 5.3999999999999995 3.5999999999999996 1 1 3998
3999 2 6.6 5.3999999999999995 4.2 1 1 3999
4000 2 6.6 5.3999999999999995 4.8 1 1 4000
4001 2 6.6 5.3999999999999995 5.3999999999999995 1 1 4001
4002 2 6.6 5.3999999999999995 6.6 1 1 4002
4003 2 6.6 5.3999999999999995 7.8 1 1 4003
4004 2 6.6 5.3999999999999995 8.4 1 1 4004
4005 2 6.6 5.3999999999999995 9.0 1 1 4005
4006 2 6.6 5.3999999999999995 9.6 1 1 4006
4007 2 6.6 5.3999999999999995 10.2 1 1 4007
4008 2 6.6 5.3999999999999995 10.799999999999999 1 1 4008
4009 2 6.6 6.0 3.0 1 1 4009
4010 2 6.6 6.0 3.5999999999999996 1 1 4010
4011 2 6.6 6.0 4.2 1 1 4011
4012 2 6.6 6.0 4.8 1 1 4012
4013 2 6.6 6.0 5.3999999999999995 1 1 4013
4014 2 6.6 6.0 6.0 1 1 4014
4015 2 6.6 6.0 6.6 1 1 4015
4016 2 6.6 6.0 7.199999999999999 1 1 4016
4017 2 6.6 6.0 7.8 1 1 4017
4018 2 6.6 6.0 8.4 1 1 4018
4019 2 6.6 6.0 9.0 1 1 4019
4020 2 6.6 6.0 9.6 1 1 4020
4021 2 6.6 6.0 10.2 1 1 4021
4022 2 6.6 6.0 10.799999999999999 1 1 4022
4023 2 6.623812981664549 6.575809583979983 2.3505251005355 1 1 4023
4024 2 6.6 6.6 3.0 1 1 4024
4025 2 6.6 6.6 3.5999999999999996 1 1 4025
4026 2 6.6 6.6 4.2 1 1 4026
4027 2 6.6 6.6 4.8 1 1 4027
4028 2 6.6 6.6 5.3999999999999995 1 1 4028
4029 2 6.6 6.6 6.0 1 1 4029
4030 2 6.6 6.6 6.6 1 1 4030
4031 2 6.6 6.6 7.199999999999999 1 1 4031
4032 2 6.6 6.6 7.8 1 1 4032
4033 2 6.6 6.6 8.4 1 1 4033
4034 2 6.6 6.6 9.0 1 1 4034
4035 2 6.6 6.6 10.2 1 1 4035
4036 2 6.6 6.6 10.799999999999999 1 1 4036
4037 2 6.6 7.199999999999999 3.0 1 1 4037
4038 2 6.6 7.199999999999999 3.5999999999999996 1 1 4038
4039 2 6.6 7.199999999999999 4.2 1 1 4039
4040 2 6.6 7.199999999999999 4.8 1 1 4040
4041 2 6.6 7.199999999999999 5.3999999999999995 1 1 4041
4042 2 6.6 7.199999999999999 6.6 1 1 4042
4043 2 6.6 7.199999999999999 7.199999999999999 1 1 4043
4044 2 6.6 7.199999999999999 7.8 1 1 4044
4045 2 6.6 7.199999999999999 8.4 1 1 4045
4046 2 6.6 7.199999999999999 9.6 1 1 4046
4047 2 6.6 7.199999999999999 10.2 1 1 4047
4048 2 6.6 7.199999999999999 10.799999999999999 1 1 4048
4049 2 6.6 7.8 2.4 1 1 4049
4050 2 6.6 7.8 3.0 1 1 4050
4051 2 6.6 7.8 3.5999999999999996 1 1 4051
4052 2 6.6 7.8 4.2 1 1 4052
4053 2 6.6 7.8 4.8 1 1 4053
4054 2 6.6 7.8 5.3999999999999995 1 1 4054
4055 2 6.6 7.8 6.0 1 1 4055
4056 2 6.6 7.8 7.199999999999999 1 1 4056
4057 2 6.6 7.8 7.8 1 1 4057
4058 2 6.6 7.8 8.4 1 1 4058
4059 2 6.6 7.8 9.6 1 1 4059
4060 2 6.6 7.8 10.2 1 1 4060
4061 2 6.6 7.8 10.799999999999999 1 1 4061
4062 2 6.6 8.4 2.4 1 1 4062
4063 2 6.6 8.4 3.0 1 1 4063
4064 2 6.6 8.4 3.5999999999999996 1 1 4064
4065 2 6.6 8.4 4.2 1 1 4065
4066 2 6.6 8.4 4.8 1 1 4066
4067 2 6.6 8.4 5.3999999999999995 1 1 4067
4068 2 6.6 8.4 6.6 1 1 4068
4069 2 6.6 8.4 7.199999999999999 1 1 4069
4070 2 6.6 8.4 7.8 1 1 4070
4071 2 6.6 8.4 8.4 1 1 4071
4072 2 6.6 8.4 10.799999999999999 1 1 4072
4073 2 6.6 9.0 3.5999999999999996 1 1 4073
4074 2 6.6 9.0 4.2 1 1 4074
4075 2 6.6 9.0 4.8 1 1 4075
4076 2 6.6 9.0 6.0 1 1 4076
4077 2 6.6 9.0 6.6 1 1 4077
4078 2 6.6 9.0 7.199999999999999 1 1 4078
4079 2 6.6 9.0 7.8 1 1 4079
4080 2 6.6 9.0 9.6 1 1 4080
4081 2 6.6 9.0 10.2 1 1 4081
4082 2 6.6 9.6 3.5999999999999996 1 1 4082
4083 2 6.6 9.6 4.2 1 1 4083
4084 2 6.6 9.6 4.8 1 1 4084
4085 2 6.6 9.6 6.0 1 1 4085
4086 2 6.6 9.6 7.199999999999999 1 1 4086
4087 2 6.6 9.6 7.8 1 1 4087
4088 2 6.6 9.6 8.4 1 1 4088
4089 2 6.6 10.2 3.5999999999999996 1 1 4089
4090 2 6.6 10.2 4.2 1 1 4090
4091 2 6.6 10.2 4.8 1 1 4091
4092 2 6.6 10.2 5.3999999999999995 1 1 4092
4093 2 6.6 10.2 6.0 1 1 4093
4094 2 6.6 10.2 6.6 1 1 4094
4095 2 6.6 10.2 7.199999999999999 1 1 4095
4096 2 6.6 10.2 7.8 1 1 4096
4097 2 6.6 10.2 8.4 1 1 4097
4098 2 6.6 10.2 9.0 1 1 4098
4099 2 6.6 10.2 9.6 1 1 4099
4100 2 6.6 10.799999999999999 4.8 1 1 4100
4101 2 6.6 10.799999999999999 5.3999999999999995 1 1 4101
4102 2 6.6 10.799999999999999 6.0 1 1 4102
4103 2 6.6 10.799999999999999 6.6 1 1 4103
4104 2 6.6 10.799999999999999 7.199999999999999 1 1 4104
4105 2 6.6 10.799999999999999 7.8 1 1 4105
4106 2 6.6 10.799999999999999 8.4 1 1 4106
4107 2 7.199999999999999 2.4 5.3999999999999995 1 1 4107
4108 2 7.199999999999999 2.4 6.0 1 1 4108
4109 2 7.199999999999999 2.4 6.6 1 1 4109
4110 2 7.199999999999999 2.4 7.199999999999999 1 1 4110
4111 2 7.199999999999999 2.4 8.4 1 1 4111
4112 2 7.199999999999999 3.0 4.2 1 1 4112
4113 2 7.199999999999999 3.0 4.8 1 1 4113
4114 2 7.199999999999999 3.0 5.3999999999999995 1 1 4114
4115 2 7.199999999999999 3.0 6.0 1 1 4115
4116 2 7.199999999999999 3.0 6.6 1 1 4116
4117 2 7.199999999999999 3.0 7.199999999999999 1 1 4117
4118 2 7.199999999999999 3.0 7.8 1 1 4118
4119 2 7.199999999999999 3.0 8.4 1 1 4119
4120 2 7.199999999999999 3.5999999999999996 3.5999999999999996 1 1 4120
4121 2 7.199999999999999 3.5999999999999996 4.2 1 1 4121
4122 2 7.199999999999999 3.5999999999999996 4.8 1 1 4122
4123 2 7.199999999999999 3.5999999999999996 5.3999999999999995 1 1 4123
4124 2 7.199999999999999 3.5999999999999996 6.0 1 1 4124
4125 2 7.199999999999999 3.5999999999999996 6.6 1 1 4125
4126 2 7.199999999999999 3.5999999999999996 7.199999999999999 1 1 4126
4127 2 7.199999999999999 3.5999999999999996 8.4 1 1 4127
4128 2 7.199999999999999 3.5999999999999996 9.0 1 1 4128
4129 2 7.199999999999999 3.5999999999999996 9.6 1 1 4129
4130 2 7.199999999999999 3.5999999999999996 10.2 1 1 4130
4131 2 7.199999999999999 4.2 3.0 1 1 4131
4132 2 7.199999999999999 4.2 3.5999999999999996 1 1 4132
4133 2 7.199999999999999 4.2 4.2 1 1 4133
4134 2 7.199999999999999 4.2 4.8 1 1 4134
4135 2 7.199999999999999 4.2 5.3999999999999995 1 1 4135
4136 2 7.199999999999999 4.2 6.0 1 1 4136
4137 2 7.199999999999999 4.2 6.6 1 1 4137
4138 2 7.199999999999999 4.2 7.199999999999999 1 1 4138
4139 2 7.199999999999999 4.2 7.8 1 1 4139
4140 2 7.199999999999999 4.2 8.4 1 1 4140
4141 2 7.199999999999999 4.2 9.0 1 1 4141
4142 2 7.199999999999999 4.2 9.6 1 1 4142
4143 2 7.199999999999999 4.2 10.2 1 1 4143
4144 2 7.199999999999999 4.8 3.0 1 1 4144
4145 2 7.199999999999999 4.8 3.5999999999999996 1 1 4145
4146 2 7.199999999999999 4.8 4.2 1 1 4146
4147 2 7.199999999999999 4.8 5.3999999999999995 1 1 4147
4148 2 7.199999999999999 4.8 6.0 1 1 4148
4149 2 7.199999999999999 4.8 6.6 1 1 4149
4150 2 7.199999999999999 4.8 7.199999999999999 1 1 4150
4151 2 7.199999999999999 4.8 7.8 1 1 4151
4152 2 7.199999999999999 4.8 8.4 1 1 4152
4153 2 7.199999999999999 4.8 10.2 1 1 4153
4154 2 7.199999999999999 5.3999999999999995 2.4 1 1 4154
4155 2 7.199999999999999 5.3999999999999995 3.0 1 1 4155
4156 2 7.199999999999999 5.3999999999999995 3.5999999999999996 1 1 4156
4157 2 7.199999999999999 5.3999999999999995 4.2 1 1 4157
4158 2 7.199999999999999 5.3999999999999995 4.8 1 1 4158
4159 2 7.199999999999999 5.3999999999999995 5.3999999999999995 1 1 4159
4160 2 7.199999999999999 5.3999999999999995 6.0 1 1 4160
4161 2 7.199999999999999 5.3999999999999995 6.6 1 1 4161
4162 2 7.199999999999999 5.3999999999999995 7.8 1 1 4162
4163 2 7.199999999999999 5.3999999999999995 8.4 1 1 4163
4164 2 7.199999999999999 5.3999999999999995 9.0 1 1 4164
4165 2 7.199999999999999 5.3999999999999995 9.6 1 1 4165
4166 2 7.319064908322745 5.2790479198999165 10.552625502677502 1 1 4166
4167 2 7.199999999999999 6.0 2.4 1 1 4167
4168 2 7.199999999999999 6.0 3.0 1 1 4168
4169 2 7.199999999999999 6.0 3.5999999999999996 1 1 4169
4170 2 7.199999999999999 6.0 4.2 1 1 4170
4171 2 7.199999999999999 6.0 4.8 1 1 4171
4172 2 7.199999999999999 6.0 5.3999999999999995 1 1 4172
4173 2 7.199999999999999 6.0 6.0 1 1 4173
4174 2 7.199999999999999 6.0 6.6 1 1 4174
4175 2 7.199999999999999 6.0 7.199999999999999 1 1 4175
4176 2 7.199999999999999 6.0 7.8 1 1 4176
4177 2 7.199999999999999 6.0 9.0 1 1 4177
4178 2 7.199999999999999 6.0 9.6 1 1 4178
4179 2 7.199999999999999 6.0 10.2 1 1 4179
4180 2 7.199999999999999 6.0 10.799999999999999 1 1 4180
4181 2 7.199999999999999 6.6 3.5999999999999996 1 1 4181
4182 2 7.199999999999999 6.6 4.2 1 1 4182
4183 2 7.199999999999999 6.6 4.8 1 1 4183
4184 2 7.199999999999999 6.6 5.3999999999999995 1 1 4184
4185 2 7.199999999999999 6.6 6.0 1 1 4185
4186 2 7.199999999999999 6.6 6.6 1 1 4186
4187 2 7.199999999999999 6.6 7.199999999999999 1 1 4187
4188 2 7.199999999999999 6.6 7.8 1 1 4188
4189 2 7.199999999999999 6.6 8.4 1 1 4189
4190 2 7.199999999999999 6.6 9.0 1 1 4190
4191 2 7.199999999999999 6.6 10.2 1 1 4191
4192 2 7.199999999999999 6.6 10.799999999999999 1 1 4192
4193 2 7.223812981664548 7.175809583979983 2.3505251005355 1 1 4193
4194 2 7.223812981664548 7.175809583979983 2.9505251005355 1 1 4194
4195 2 7.199999999999999 7.199999999999999 3.5999999999999996 1 1 4195
4196 2 7.199999999999999 7.199999999999999 4.8 1 1 4196
4197 2 7.199999999999999 7.199999999999999 5.3999999999999995 1 1 4197
4198 2 7.199999999999999 7.199999999999999 6.0 1 1 4198
4199 2 7.199999999999999 7.199999999999999 6.6 1 1 4199
4200 2 7.199999999999999 7.199999999999999 7.199999999999999 1 1 4200
4201 2 7.199999999999999 7.199999999999999 7.8 1 1 4201
4202 2 7.199999999999999 7.199999999999999 8.4 1 1 4202
4203 2 7.199999999999999 7.199999999999999 9.0 1 1 4203
4204 2 7.199999999999999 7.199999999999999 9.6 1 1 4204
4205 2 7.199999999999999 7.199999999999999 10.2 1 1 4205
4206 2 7.199999999999999 7.199999999999999 10.799999999999999 1 1 4206
4207 2 7.199999999999999 7.8 2.4 1 1 4207
4208 2 7.199999999999999 7.8 3.0 1 1 4208
4209 2 7.199999999999999 7.8 3.5999999999999996 1 1 4209
4210 2 7.199999999999999 7.8 4.8 1 1 4210
4211 2 7.199999999999999 7.8 5.3999999999999995 1 1 4211
4212 2 7.199999999999999 7.8 6.0 1 1 4212
4213 2 7.199999999999999 7.8 7.199999999999999 1 1 4213
4214 2 7.199999999999999 7.8 7.8 1 1 4214
4215 2 7.199999999999999 7.8 8.4 1 1 4215
4216 2 7.199999999999999 7.8 9.0 1 1 4216
4217 2 7.199999999999999 7.8 9.6 1 1 4217
4218 2 7.199999999999999 7.8 10.2 1 1 4218
4219 2 7.199999999999999 7.8 10.799999999999999 1 1 4219
4220 2 7.199999999999999 8.4 2.4 1 1 4220
4221 2 7.199999999999999 8.4 3.0 1 1 4221
4222 2 7.199999999999999 8.4 3.5999999999999996 1 1 4222
4223 2 7.199999999999999 8.4 4.2 1 1 4223
4224 2 7.199999999999999 8.4 4.8 1 1 4224
4225 2 7.199999999999999 8.4 5.3999999999999995 1 1 4225
4226 2 7.199999999999999 8.4 6.0 1 1 4226
4227 2 7.199999999999999 8.4 6.6 1 1 4227
4228 2 7.199999999999999 8.4 7.8 1 1 4228
4229 2 7.199999999999999 8.4 8.4 1 1 4229
4230 2 7.199999999999999 8.4 9.0 1 1 4230
4231 2 7.199999999999999 8.4 9.6 1 1 4231
4232 2 7.199999999999999 8.4 10.2 1 1 4232
4233 2 7.199999999999999 8.4 10.799999999999999 1 1 4233
4234 2 7.199999999999999 9.0 3.0 1 1 4234
4235 2 7.199999999999999 9.0 3.5999999999999996 1 1 4235
4236 2 7.199999999999999 9.0 4.8 1 1 4236
4237 2 7.199999999999999 9.0 5.3999999999999995 1 1 4237
4238 2 7.199999999999999 9.0 6.0 1 1 4238
4239 2 7.199999999999999 9.0 6.6 1 1 4239
4240 2 7.199999999999999 9.0 7.199999999999999 1 1 4240
4241 2 7.199999999999999 9.0 8.4 1 1 4241
4242 2 7.199999999999999 9.0 9.0 1 1 4242
4243 2 7.199999999999999 9.0 9.6 1 1 4243
4244 2 7.199999999999999 9.0 10.2 1 1 4244
4245 2 7.199999999999999 9.6 3.5999999999999996 1 1 4245
4246 2 7.199999999999999 9.6 4.2 1 1 4246
4247 2 7.199999999999999 9.6 4.8 1 1 4247
4248 2 7.199999999999999 9.6 5.3999999999999995 1 1 4248
4249 2 7.199999999999999 9.6 6.0 1 1 4249
4250 2 7.199999999999999 9.6 6.6 1 1 4250
4251 2 7.199999999999999 9.6 7.199999999999999 1 1 4251
4252 2 7.199999999999999 9.6 7.8 1 1 4252
4253 2 7.199999999999999 9.6 9.0 1 1 4253
4254 2 7.199999999999999 9.6 9.6 1 1 4254
4255 2 7.199999999999999 9.6 10.2 1 1 4255
4256 2 7.199999999999999 10.2 3.5999999999999996 1 1 4256
4257 2 7.199999999999999 10.2 4.2 1 1 4257
4258 2 7.199999999999999 10.2 5.3999999999999995 1 1 4258
4259 2 7.199999999999999 10.2 6.0 1 1 4259
4260 2 7.199999999999999 10.2 6.6 1 1 4260
4261 2 7.199999999999999 10.2 7.199999999999999 1 1 4261
4262 2 7.199999999999999 10.2 7.8 1 1 4262
4263 2 7.199999999999999 10.2 8.4 1 1 4263
4264 2 7.199999999999999 10.2 9.0 1 1 4264
4265 2 7.199999999999999 10.799999999999999 4.8 1 1 4265
4266 2 7.199999999999999 10.799999999999999 5.3999999999999995 1 1 4266
4267 2 7.199999999999999 10.799999999999999 6.0 1 1 4267
4268 2 7.199999999999999 10.799999999999999 6.6 1 1 4268
4269 2 7.199999999999999 10.799999999999999 7.199999999999999 1 1 4269
4270 2 7.199999999999999 10.799999999999999 7.8 1 1 4270
4271 2 7.199999999999999 10.799999999999999 8.4 1 1 4271
4272 2 7.8 2.4 5.3999999999999995 1 1 4272
4273 2 7.8 2.4 6.0 1 1 4273
4274 2 7.8 2.4 6.6 1 1 4274
4275 2 7.8 2.4 7.199999999999999 1 1 4275
4276 2 7.8 2.4 7.8 1 1 4276
4277 2 7.8 2.4 8.4 1 1 4277
4278 2 7.8 3.0 4.2 1 1 4278
4279 2 7.8 3.0 5.3999999999999995 1 1 4279
4280 2 7.8 3.0 6.6 1 1 4280
4281 2 7.8 3.0 7.199999999999999 1 1 4281
4282 2 7.8 3.0 7.8 1 1 4282
4283 2 7.8 3.0 8.4 1 1 4283
4284 2 7.8 3.0 9.0 1 1 4284
4285 2 7.8 3.5999999999999996 3.5999999999999996 1 1 4285
4286 2 7.8 3.5999999999999996 4.2 1 1 4286
4287 2 7.8 3.5999999999999996 4.8 1 1 4287
4288 2 7.8 3.5999999999999996 5.3999999999999995 1 1 4288
4289 2 7.8 3.5999999999999996 6.0 1 1 4289
4290 2 7.8 3.5999999999999996 6.6 1 1 4290
4291 2 7.8 3.5999999999999996 7.199999999999999 1 1 4291
4292 2 7.8 3.5999999999999996 7.8 1 1 4292
4293 2 7.8 3.5999999999999996 8.4 1 1 4293
4294 2 7.8 3.5999999999999996 9.0 1 1 4294
4295 2 7.8 3.5999999999999996 9.6 1 1 4295
4296 2 7.8 3.5999999999999996 10.2 1 1 4296
4297 2 7.8 4.2 3.0 1 1 4297
4298 2 7.8 4.2 3.5999999999999996 1 1 4298
4299 2 7.8 4.2 4.2 1 1 4299
4300 2 7.8 4.2 4.8 1 1 4300
4301 2 7.8 4.2 5.3999999999999995 1 1 4301
4302 2 7.8 4.2 6.6 1 1 4302
4303 2 7.8 4.2 7.199999999999999 1 1 4303
4304 2 7.8 4.2 7.8 1 1 4304
4305 2 7.8 4.2 8.4 1 1 4305
4306 2 7.8 4.2 9.6 1 1 4306
4307 2 7.8 4.8 3.5999999999999996 1 1 4307
4308 2 7.8 4.8 4.2 1 1 4308
4309 2 7.8 4.8 4.8 1 1 4309
4310 2 7.8 4.8 5.3999999999999995 1 1 4310
4311 2 7.8 4.8 6.0 1 1 4311
4312 2 7.8 4.8 6.6 1 1 4312
4313 2 7.8 4.8 7.199999999999999 1 1 4313
4314 2 7.8 4.8 7.8 1 1 4314
4315 2 7.919064908322746 4.679047919899917 8.752625502677503 1 1 4315
4316 2 7.8 4.8 9.6 1 1 4316
4317 2 7.8 4.8 10.2 1 1 4317
4318 2 7.8 4.8 10.799999999999999 1 1 4318
4319 2 7.919064908322746 5.2790479198999165 2.752625502677501 1 1 4319
4320 2 7.8 5.3999999999999995 3.5999999999999996 1 1 4320
4321 2 7.8 5.3999999999999995 4.2 1 1 4321
4322 2 7.8 5.3999999999999995 4.8 1 1 4322
4323 2 7.8 5.3999999999999995 6.0 1 1 4323
4324 2 7.8 5.3999999999999995 6.6 1 1 4324
4325 2 7.8 5.3999999999999995 7.199999999999999 1 1 4325
4326 2 7.8 5.3999999999999995 7.8 1 1 4326
4327 2 7.8 5.3999999999999995 8.4 1 1 4327
4328 2 7.8 5.3999999999999995 9.0 1 1 4328
4329 2 7.8 5.3999999999999995 10.2 1 1 4329
4330 2 7.8 6.0 2.4 1 1 4330
4331 2 7.8 6.0 3.5999999999999996 1 1 4331
4332 2 7.8 6.0 4.8 1 1 4332
4333 2 7.8 6.0 5.3999999999999995 1 1 4333
4334 2 7.8 6.0 6.0 1 1 4334
4335 2 7.8 6.0 6.6 1 1 4335
4336 2 7.8 6.0 7.199999999999999 1 1 4336
4337 2 7.8 6.0 7.8 1 1 4337
4338 2 7.8 6.0 8.4 1 1 4338
4339 2 7.8 6.0 9.0 1 1 4339
4340 2 7.8 6.0 9.6 1 1 4340
4341 2 7.919064908322746 5.879047919899917 10.552625502677502 1 1 4341
4342 2 7.8 6.6 2.4 1 1 4342
4343 2 7.8 6.6 3.0 1 1 4343
4344 2 7.8 6.6 4.2 1 1 4344
4345 2 7.8 6.6 4.8 1 1 4345
4346 2 7.8 6.6 5.3999999999999995 1 1 4346
4347 2 7.8 6.6 6.0 1 1 4347
4348 2 7.8 6.6 7.8 1 1 4348
4349 2 7.8 6.6 8.4 1 1 4349
4350 2 7.8 6.6 9.0 1 1 4350
4351 2 7.8 6.6 10.2 1 1 4351
4352 2 7.8 6.6 10.799999999999999 1 1 4352
4353 2 7.8 7.199999999999999 3.5999999999999996 1 1 4353
4354 2 7.8 7.199999999999999 4.2 1 1 4354
4355 2 7.8 7.199999999999999 4.8 1 1 4355
4356 2 7.8 7.199999999999999 5.3999999999999995 1 1 4356
4357 2 7.8 7.199999999999999 6.0 1 1 4357
4358 2 7.8 7.199999999999999 6.6 1 1 4358
4359 2 7.8 7.199999999999999 7.199999999999999 1 1 4359
4360 2 7.8 7.199999999999999 7.8 1 1 4360
4361 2 7.8 7.199999999999999 8.4 1 1 4361
4362 2 7.8 7.199999999999999 9.0 1 1 4362
4363 2 7.8 7.199999999999999 9.6 1 1 4363
4364 2 7.8 7.199999999999999 10.2 1 1 4364
4365 2 7.8 7.199999999999999 10.799999999999999 1 1 4365
4366 2 7.8 7.8 2.4 1 1 4366
4367 2 7.8 7.8 3.0 1 1 4367
4368 2 7.8 7.8 3.5999999999999996 1 1 4368
4369 2 7.8 7.8 4.2 1 1 4369
4370 2 7.8 7.8 4.8 1 1 4370
4371 2 7.8 7.8 6.6 1 1 4371
4372 2 7.8 7.8 7.199999999999999 1 1 4372
4373 2 7.8 7.8 7.8 1 1 4373
4374 2 7.8 7.8 8.4 1 1 4374
4375 2 7.8 7.8 9.0 1 1 4375
4376 2 7.8 7.8 9.6 1 1 4376
4377 2 7.8 7.8 10.799999999999999 1 1 4377
4378 2 7.8 8.4 2.4 1 1 4378
4379 2 7.8 8.4 3.0 1 1 4379
4380 2 7.8 8.4 4.2 1 1 4380
4381 2 7.8 8.4 4.8 1 1 4381
4382 2 7.8 8.4 5.3999999999999995 1 1 4382
4383 2 7.8 8.4 6.0 1 1 4383
4384 2 7.8 8.4 6.6 1 1 4384
4385 2 7.8 8.4 7.199999999999999 1 1 4385
4386 2 7.8 8.4 7.8 1 1 4386
4387 2 7.8 8.4 8.4 1 1 4387
4388 2 7.8 8.4 9.0 1 1 4388
4389 2 7.8 8.4 9.6 1 1 4389
4390 2 7.8 8.4 10.2 1 1 4390
4391 2 7.8 8.4 10.799999999999999 1 1 4391
4392 2 7.8 9.0 3.0 1 1 4392
4393 2 7.8 9.0 4.2 1 1 4393
4394 2 7.8 9.0 4.8 1 1 4394
4395 2 7.8 9.0 5.3999999999999995 1 1 4395
4396 2 7.8 9.0 6.0 1 1 4396
4397 2 7.8 9.0 6.6 1 1 4397
4398 2 7.8 9.0 7.199999999999999 1 1 4398
4399 2 7.8 9.0 7.8 1 1 4399
4400 2 7.8 9.0 9.0 1 1 4400
4401 2 7.8 9.0 9.6 1 1 4401
4402 2 7.8 9.0 10.2 1 1 4402
4403 2 7.8 9.6 3.5999999999999996 1 1 4403
4404 2 7.8 9.6 4.2 1 1 4404
4405 2 7.8 9.6 4.8 1 1 4405
4406 2 7.8 9.6 5.3999999999999995 1 1 4406
4407 2 7.8 9.6 6.0 1 1 4407
4408 2 7.8 9.6 6.6 1 1 4408
4409 2 7.8 9.6 7.8 1 1 4409
4410 2 7.8 9.6 8.4 1 1 4410
4411 2 7.8 9.6 9.0 1 1 4411
4412 2 7.8 9.6 10.2 1 1 4412
4413 2 7.8 10.2 3.5999999999999996 1 1 4413
4414 2 7.8 10.2 4.2 1 1 4414
4415 2 7.8 10.2 4.8 1 1 4415
4416 2 7.8 10.2 5.3999999999999995 1 1 4416
4417 2 7.8 10.2 6.0 1 1 4417
4418 2 7.8 10.2 6.6 1 1 4418
4419 2 7.8 10.2 7.199999999999999 1 1 4419
4420 2 7.8 10.2 7.8 1 1 4420
4421 2 7.8 10.2 8.4 1 1 4421
4422 2 7.8 10.2 9.0 1 1 4422
4423 2 7.8 10.2 9.6 1 1 4423
4424 2 7.8 10.799999999999999 4.8 1 1 4424
4425 2 7.8 10.799999999999999 5.3999999999999995 1 1 4425
4426 2 7.8 10.799999999999999 6.0 1 1 4426
4427 2 7.8 10.799999999999999 6.6 1 1 4427
4428 2 7.8 10.799999999999999 7.199999999999999 1 1 4428
4429 2 7.8 10.799999999999999 7.8 1 1 4429
4430 2 7.8 10.799999999999999 8.4 1 1 4430
4431 2 8.4 2.4 5.3999999999999995 1 1 4431
4432 2 8.4 2.4 6.0 1 1 4432
4433 2 8.4 2.4 6.6 1 1 4433
4434 2 8.4 2.4 7.199999999999999 1 1 4434
4435 2 8.4 2.4 7.8 1 1 4435
4436 2 8.4 3.0 4.2 1 1 4436
4437 2 8.4 3.0 4.8 1 1 4437
4438 2 8.4 3.0 5.3999999999999995 1 1 4438
4439 2 8.4 3.0 6.0 1 1 4439
4440 2 8.4 3.0 6.6 1 1 4440
4441 2 8.4 3.0 7.199999999999999 1 1 4441
4442 2 8.4 3.0 7.8 1 1 4442
4443 2 8.4 3.0 8.4 1 1 4443
4444 2 8.4 3.0 9.0 1 1 4444
4445 2 8.4 3.5999999999999996 3.5999999999999996 1 1 4445
4446 2 8.4 3.5999999999999996 4.2 1 1 4446
4447 2 8.4 3.5999999999999996 4.8 1 1 4447
4448 2 8.4 3.5999999999999996 5.3999999999999995 1 1 4448
4449 2 8.4 3.5999999999999996 6.0 1 1 4449
4450 2 8.4 3.5999999999999996 6.6 1 1 4450
4451 2 8.4 3.5999999999999996 7.199999999999999 1 1 4451
4452 2 8.4 3.5999999999999996 8.4 1 1 4452
4453 2 8.4 3.5999999999999996 9.0 1 1 4453
4454 2 8.4 3.5999999999999996 9.6 1 1 4454
4455 2 8.4 3.5999999999999996 10.2 1 1 4455
4456 2 8.4 4.2 3.0 1 1 4456
4457 2 8.4 4.2 4.2 1 1 4457
4458 2 8.4 4.2 4.8 1 1 4458
4459 2 8.4 4.2 5.3999999999999995 1 1 4459
4460 2 8.4 4.2 6.0 1 1 4460
4461 2 8.4 4.2 6.6 1 1 4461
4462 2 8.4 4.2 7.199999999999999 1 1 4462
4463 2 8.4 4.2 7.8 1 1 4463
4464 2 8.4 4.2 8.4 1 1 4464
4465 2 8.4 4.2 9.0 1 1 4465
4466 2 8.4 4.2 9.6 1 1 4466
4467 2 8.4 4.2 10.2 1 1 4467
4468 2 8.4 4.8 3.0 1 1 4468
4469 2 8.4 4.8 3.5999999999999996 1 1 4469
4470 2 8.4 4.8 4.2 1 1 4470
4471 2 8.4 4.8 4.8 1 1 4471
4472 2 8.4 4.8 5.3999999999999995 1 1 4472
4473 2 8.4 4.8 6.0 1 1 4473
4474 2 8.4 4.8 7.199999999999999 1 1 4474
4475 2 8.4 4.8 7.8 1 1 4475
4476 2 8.4 4.8 8.4 1 1 4476
4477 2 8.4 4.8 9.6 1 1 4477
4478 2 8.4 4.8 10.2 1 1 4478
4479 2 8.4 4.8 10.799999999999999 1 1 4479
4480 2 8.4 5.3999999999999995 2.4 1 1 4480
4481 2 8.4 5.3999999999999995 3.5999999999999996 1 1 4481
4482 2 8.4 5.3999999999999995 4.2 1 1 4482
4483 2 8.4 5.3999999999999995 4.8 1 1 4483
4484 2 8.4 5.3999999999999995 5.3999999999999995 1 1 4484
4485 2 8.4 5.3999999999999995 6.0 1 1 4485
4486 2 8.4 5.3999999999999995 6.6 1 1 4486
4487 2 8.4 5.3999999999999995 7.199999999999999 1 1 4487
4488 2 8.4 5.3999999999999995 7.8 1 1 4488
4489 2 8.4 5.3999999999999995 9.0 1 1 4489
4490 2 8.4 5.3999999999999995 9.6 1 1 4490
4491 2 8.4 5.3999999999999995 10.2 1 1 4491
4492 2 8.4 6.0 2.4 1 1 4492
4493 2 8.4 6.0 3.0 1 1 4493
4494 2 8.4 6.0 3.5999999999999996 1 1 4494
4495 2 8.4 6.0 4.2 1 1 4495
4496 2 8.4 6.0 4.8 1 1 4496
4497 2 8.4 6.0 5.3999999999999995 1 1 4497
4498 2 8.4 6.0 6.0 1 1 4498
4499 2 8.4 6.0 6.6 1 1 4499
4500 2 8.4 6.0 7.199999999999999 1 1 4500
4501 2 8.4 6.0 7.8 1 1 4501
4502 2 8.4 6.0 8.4 1 1 4502
4503 2 8.4 6.0 9.0 1 1 4503
4504 2 8.4 6.0 9.6 1 1 4504
4505 2 8.4 6.0 10.2 1 1 4505
4506 2 8.4 6.6 2.4 1 1 4506
4507 2 8.4 6.6 3.5999999999999996 1 1 4507
4508 2 8.4 6.6 4.2 1 1 4508
4509 2 8.4 6.6 4.8 1 1 4509
4510 2 8.4 6.6 5.3999999999999995 1 1 4510
4511 2 8.4 6.6 6.6 1 1 4511
4512 2 8.4 6.6 7.199999999999999 1 1 4512
4513 2 8.4 6.6 7.8 1 1 4513
4514 2 8.4 6.6 9.6 1 1 4514
4515 2 8.4 6.6 10.2 1 1 4515
4516 2 8.4 6.6 10.799999999999999 1 1 4516
4517 2 8.4 7.199999999999999 2.4 1 1 4517
4518 2 8.4 7.199999999999999 3.0 1 1 4518
4519 2 8.4 7.199999999999999 3.5999999999999996 1 1 4519
4520 2 8.4 7.199999999999999 4.2 1 1 4520
4521 2 8.4 7.199999999999999 5.3999999999999995 1 1 4521
4522 2 8.4 7.199999999999999 6.0 1 1 4522
4523 2 8.4 7.199999999999999 6.6 1 1 4523
4524 2 8.4 7.199999999999999 7.199999999999999 1 1 4524
4525 2 8.4 7.199999999999999 7.8 1 1 4525
4526 2 8.4 7.199999999999999 8.4 1 1 4526
4527 2 8.4 7.199999999999999 9.6 1 1 4527
4528 2 8.4 7.199999999999999 10.2 1 1 4528
4529 2 8.4 7.199999999999999 10.799999999999999 1 1 4529
4530 2 8.4 7.8 2.4 1 1 4530
4531 2 8.4 7.8 3.5999999999999996 1 1 4531
4532 2 8.4 7.8 4.8 1 1 4532
4533 2 8.4 7.8 5.3999999999999995 1 1 4533
4534 2 8.4 7.8 6.0 1 1 4534
4535 2 8.4 7.8 6.6 1 1 4535
4536 2 8.4 7.8 7.199999999999999 1 1 4536
4537 2 8.4 7.8 7.8 1 1 4537
4538 2 8.4 7.8 8.4 1 1 4538
4539 2 8.4 7.8 9.0 1 1 4539
4540 2 8.4 7.8 9.6 1 1 4540
4541 2 8.4 7.8 10.2 1 1 4541
4542 2 8.4 7.8 10.799999999999999 1 1 4542
4543 2 8.4 8.4 2.4 1 1 4543
4544 2 8.4 8.4 3.0 1 1 4544
4545 2 8.4 8.4 3.5999999999999996 1 1 4545
4546 2 8.4 8.4 4.2 1 1 4546
4547 2 8.4 8.4 4.8 1 1 4547
4548 2 8.4 8.4 5.3999999999999995 1 1 4548
4549 2 8.4 8.4 6.0 1 1 4549
4550 2 8.4 8.4 6.6 1 1 4550
4551 2 8.4 8.4 7.199999999999999 1 1 4551
4552 2 8.4 8.4 9.0 1 1 4552
4553 2 8.4 8.4 9.6 1 1 4553
4554 2 8.4 8.4 10.2 1 1 4554
4555 2 8.4 9.0 3.0 1 1 4555
4556 2 8.4 9.0 3.5999999999999996 1 1 4556
4557 2 8.4 9.0 4.2 1 1 4557
4558 2 8.4 9.0 4.8 1 1 4558
4559 2 8.4 9.0 5.3999999999999995 1 1 4559
4560 2 8.4 9.0 6.6 1 1 4560
4561 2 8.4 9.0 7.199999999999999 1 1 4561
4562 2 8.4 9.0 7.8 1 1 4562
4563 2 8.4 9.0 8.4 1 1 4563
4564 2 8.4 9.0 9.0 1 1 4564
4565 2 8.4 9.0 9.6 1 1 4565
4566 2 8.4 9.6 3.5999999999999996 1 1 4566
4567 2 8.4 9.6 4.2 1 1 4567
4568 2 8.4 9.6 4.8 1 1 4568
4569 2 8.4 9.6 5.3999999999999995 1 1 4569
4570 2 8.4 9.6 6.0 1 1 4570
4571 2 8.4 9.6 6.6 1 1 4571
4572 2 8.4 9.6 7.199999999999999 1 1 4572
4573 2 8.4 9.6 7.8 1 1 4573
4574 2 8.4 9.6 8.4 1 1 4574
4575 2 8.4 9.6 9.0 1 1 4575
4576 2 8.4 9.6 9.6 1 1 4576
4577 2 8.4 9.6 10.2 1 1 4577
4578 2 8.4 10.2 4.2 1 1 4578
4579 2 8.4 10.2 4.8 1 1 4579
4580 2 8.4 10.2 5.3999999999999995 1 1 4580
4581 2 8.4 10.2 6.0 1 1 4581
4582 2 8.4 10.2 6.6 1 1 4582
4583 2 8.4 10.2 7.199999999999999 1 1 4583
4584 2 8.4 10.2 7.8 1 1 4584
4585 2 8.4 10.2 8.4 1 1 4585
4586 2 8.4 10.2 9.6 1 1 4586
4587 2 8.4 10.799999999999999 5.3999999999999995 1 1 4587
4588 2 8.4 10.799999999999999 6.0 1 1 4588
4589 2 8.4 10.799999999999999 6.6 1 1 4589
4590 2 8.4 10.799999999999999 7.8 1 1 4590
4591 2 8.4 10.799999999999999 8.4 1 1 4591
4592 2 9.0 2.4 5.3999999999999995 1 1 4592
4593 2 9.0 2.4 6.0 1 1 4593
4594 2 9.0 2.4 6.6 1 1 4594
4595 2 9.0 2.4 7.199999999999999 1 1 4595
4596 2 9.0 2.4 7.8 1 1 4596
4597 2 9.0 2.4 8.4 1 1 4597
4598 2 9.0 3.0 4.2 1 1 4598
4599 2 9.0 3.0 4.8 1 1 4599
4600 2 9.0 3.0 5.3999999999999995 1 1 4600
4601 2 9.0 3.0 6.0 1 1 4601
4602 2 9.0 3.0 6.6 1 1 4602
4603 2 9.0 3.0 7.199999999999999 1 1 4603
4604 2 9.0 3.0 7.8 1 1 4604
4605 2 9.0 3.0 8.4 1 1 4605
4606 2 9.0 3.0 9.0 1 1 4606
4607 2 9.0 3.5999999999999996 3.5999999999999996 1 1 4607
4608 2 9.0 3.5999999999999996 4.2 1 1 4608
4609 2 9.0 3.5999999999999996 4.8 1 1 4609
4610 2 9.0 3.5999999999999996 5.3999999999999995 1 1 4610
4611 2 9.0 3.5999999999999996 6.0 1 1 4611
4612 2 9.0 3.5999999999999996 6.6 1 1 4612
4613 2 9.0 3.5999999999999996 7.199999999999999 1 1 4613
4614 2 9.0 3.5999999999999996 7.8 1 1 4614
4615 2 9.0 3.5999999999999996 8.4 1 1 4615
4616 2 9.0 3.5999999999999996 9.0 1 1 4616
4617 2 9.0 3.5999999999999996 10.2 1 1 4617
4618 2 9.0 4.2 3.0 1 1 4618
4619 2 9.0 4.2 3.5999999999999996 1 1 4619
4620 2 9.0 4.2 4.2 1 1 4620
4621 2 9.0 4.2 4.8 1 1 4621
4622 2 9.0 4.2 5.3999999999999995 1 1 4622
4623 2 9.0 4.2 6.0 1 1 4623
4624 2 9.0 4.2 6.6 1 1 4624
4625 2 9.0 4.2 7.199999999999999 1 1 4625
4626 2 9.0 4.2 7.8 1 1 4626
4627 2 9.0 4.2 8.4 1 1 4627
4628 2 9.0 4.2 9.0 1 1 4628
4629 2 9.0 4.2 9.6 1 1 4629
4630 2 9.0 4.2 10.2 1 1 4630
4631 2 9.0 4.8 3.0 1 1 4631
4632 2 9.0 4.8 4.2 1 1 4632
4633 2 9.0 4.8 4.8 1 1 4633
4634 2 9.0 4.8 5.3999999999999995 1 1 4634
4635 2 9.0 4.8 6.0 1 1 4635
4636 2 9.0 4.8 6.6 1 1 4636
4637 2 9.0 4.8 7.8 1 1 4637
4638 2 9.0 4.8 8.4 1 1 4638
4639 2 9.0 4.8 9.0 1 1 4639
4640 2 9.0 4.8 9.6 1 1 4640
4641 2 9.0 4.8 10.2 1 1 4641
4642 2 9.0 4.8 10.799999999999999 1 1 4642
4643 2 9.0 5.3999999999999995 2.4 1 1 4643
4644 2 9.0 5.3999999999999995 3.0 1 1 4644
4645 2 9.0 5.3999999999999995 3.5999999999999996 1 1 4645
4646 2 9.0 5.3999999999999995 4.8 1 1 4646
4647 2 9.0 5.3999999999999995 5.3999999999999995 1 1 4647
4648 2 9.0 5.3999999999999995 6.0 1 1 4648
4649 2 9.0 5.3999999999999995 6.6 1 1 4649
4650 2 9.0 5.3999999999999995 7.199999999999999 1 1 4650
4651 2 9.0 5.3999999999999995 7.8 1 1 4651
4652 2 9.0 5.3999999999999995 8.4 1 1 4652
4653 2 9.0 5.3999999999999995 9.0 1 1 4653
4654 2 9.0 5.3999999999999995 9.6 1 1 4654
4655 2 9.0 5.3999999999999995 10.2 1 1 4655
4656 2 9.0 5.3999999999999995 10.799999999999999 1 1 4656
4657 2 9.0 6.0 2.4 1 1 4657
4658 2 9.0 6.0 3.0 1 1 4658
4659 2 9.0 6.0 4.2 1 1 4659
4660 2 9.0 6.0 4.8 1 1 4660
4661 2 9.0 6.0 5.3999999999999995 1 1 4661
4662 2 9.0 6.0 6.0 1 1 4662
4663 2 9.0 6.0 6.6 1 1 4663
4664 2 9.0 6.0 7.199999999999999 1 1 4664
4665 2 9.0 6.0 7.8 1 1 4665
4666 2 9.0 6.0 8.4 1 1 4666
4667 2 9.0 6.0 9.0 1 1 4667
4668 2 9.0 6.0 9.6 1 1 4668
4669 2 9.0 6.0 10.2 1 1 4669
4670 2 9.0 6.0 10.799999999999999 1 1 4670
4671 2 9.0 6.6 2.4 1 1 4671
4672 2 9.0 6.6 3.0 1 1 4672
4673 2 9.0 6.6 4.2 1 1 4673
4674 2 9.0 6.6 4.8 1 1 4674
4675 2 9.0 6.6 5.3999999999999995 1 1 4675
4676 2 9.0 6.6 6.0 1 1 4676
4677 2 9.0 6.6 6.6 1 1 4677
4678 2 9.0 6.6 7.8 1 1 4678
4679 2 9.0 6.6 8.4 1 1 4679
4680 2 9.0 6.6 9.6 1 1 4680
4681 2 9.0 6.6 10.799999999999999 1 1 4681
4682 2 9.0 7.199999999999999 2.4 1 1 4682
4683 2 9.0 7.199999999999999 3.5999999999999996 1 1 4683
4684 2 9.0 7.199999999999999 4.2 1 1 4684
4685 2 9.0 7.199999999999999 4.8 1 1 4685
4686 2 9.0 7.199999999999999 5.3999999999999995 1 1 4686
4687 2 9.0 7.199999999999999 6.0 1 1 4687
4688 2 9.0 7.199999999999999 6.6 1 1 4688
4689 2 9.0 7.199999999999999 7.199999999999999 1 1 4689
4690 2 9.0 7.199999999999999 7.8 1 1 4690
4691 2 9.0 7.199999999999999 8.4 1 1 4691
4692 2 9.0 7.199999999999999 9.0 1 1 4692
4693 2 9.0 7.199999999999999 9.6 1 1 4693
4694 2 9.0 7.199999999999999 10.2 1 1 4694
4695 2 9.0 7.199999999999999 10.799999999999999 1 1 4695
4696 2 9.0 7.8 2.4 1 1 4696
4697 2 9.0 7.8 3.0 1 1 4697
4698 2 9.0 7.8 3.5999999999999996 1 1 4698
4699 2 9.0 7.8 4.8 1 1 4699
4700 2 9.0 7.8 5.3999999999999995 1 1 4700
4701 2 9.0 7.8 6.6 1 1 4701
4702 2 9.0 7.8 7.199999999999999 1 1 4702
4703 2 9.0 7.8 7.8 1 1 4703
4704 2 9.0 7.8 8.4 1 1 4704
4705 2 9.0 7.8 9.0 1 1 4705
4706 2 9.0 7.8 10.2 1 1 4706
4707 2 9.0 7.8 10.799999999999999 1 1 4707
4708 2 9.0 8.4 2.4 1 1 4708
4709 2 9.0 8.4 3.0 1 1 4709
4710 2 9.0 8.4 3.5999999999999996 1 1 4710
4711 2 9.0 8.4 4.2 1 1 4711
4712 2 9.0 8.4 4.8 1 1 4712
4713 2 9.0 8.4 6.0 1 1 4713
4714 2 9.0 8.4 6.6 1 1 4714
4715 2 9.0 8.4 7.199999999999999 1 1 4715
4716 2 9.0 8.4 7.8 1 1 4716
4717 2 9.0 8.4 8.4 1 1 4717
4718 2 9.0 8.4 9.0 1 1 4718
4719 2 9.0 8.4 9.6 1 1 4719
4720 2 9.0 8.4 10.2 1 1 4720
4721 2 9.0 8.4 10.799999999999999 1 1 4721
4722 2 9.0 9.0 3.0 1 1 4722
4723 2 9.0 9.0 3.5999999999999996 1 1 4723
4724 2 9.0 9.0 4.8 1 1 4724
4725 2 9.0 9.0 5.3999999999999995 1 1 4725
4726 2 9.0 9.0 6.6 1 1 4726
4727 2 9.0 9.0 7.8 1 1 4727
4728 2 9.0 9.0 8.4 1 1 4728
4729 2 9.0 9.0 9.0 1 1 4729
4730 2 9.0 9.0 9.6 1 1 4730
4731 2 9.0 9.0 10.2 1 1 4731
4732 2 9.0 9.6 3.5999999999999996 1 1 4732
4733 2 9.0 9.6 4.2 1 1 4733
4734 2 9.0 9.6 4.8 1 1 4734
4735 2 9.0 9.6 5.3999999999999995 1 1 4735
4736 2 9.0 9.6 6.0 1 1 4736
4737 2 9.0 9.6 6.6 1 1 4737
4738 2 9.0 9.6 7.199999999999999 1 1 4738
4739 2 9.0 9.6 8.4 1 1 4739
4740 2 9.0 9.6 9.6 1 1 4740
4741 2 9.0 9.6 10.2 1 1 4741
4742 2 9.0 10.2 3.5999999999999996 1 1 4742
4743 2 9.0 10.2 4.2 1 1 4743
4744 2 9.0 10.2 4.8 1 1 4744
4745 2 9.0 10.2 5.3999999999999995 1 1 4745
4746 2 9.0 10.2 7.8 1 1 4746
4747 2 9.0 10.2 9.0 1 1 4747
4748 2 9.0 10.2 9.6 1 1 4748
4749 2 9.0 10.799999999999999 4.8 1 1 4749
4750 2 9.0 10.799999999999999 5.3999999999999995 1 1 4750
4751 2 9.0 10.799999999999999 6.0 1 1 4751
4752 2 9.0 10.799999999999999 6.6 1 1 4752
4753 2 9.0 10.799999999999999 7.199999999999999 1 1 4753
4754 2 9.0 10.799999999999999 7.8 1 1 4754
4755 2 9.0 10.799999999999999 8.4 1 1 4755
4756 2 9.6 2.4 5.3999999999999995 1 1 4756
4757 2 9.6 2.4 6.0 1 1 4757
4758 2 9.6 2.4 6.6 1 1 4758
4759 2 9.6 2.4 7.199999999999999 1 1 4759
4760 2 9.6 2.4 7.8 1 1 4760
4761 2 9.6 3.0 4.2 1 1 4761
4762 2 9.6 3.0 4.8 1 1 4762
4763 2 9.6 3.0 5.3999999999999995 1 1 4763
4764 2 9.6 3.0 6.0 1 1 4764
4765 2 9.6 3.0 6.6 1 1 4765
4766 2 9.6 3.0 7.199999999999999 1 1 4766
4767 2 9.6 3.0 7.8 1 1 4767
4768 2 9.6 3.0 8.4 1 1 4768
4769 2 9.6 3.0 9.0 1 1 4769
4770 2 9.6 3.5999999999999996 3.5999999999999996 1 1 4770
4771 2 9.6 3.5999999999999996 4.2 1 1 4771
4772 2 9.6 3.5999999999999996 4.8 1 1 4772
4773 2 9.6 3.5999999999999996 5.3999999999999995 1 1 4773
4774 2 9.6 3.5999999999999996 6.0 1 1 4774
4775 2 9.6 3.5999999999999996 7.8 1 1 4775
4776 2 9.6 3.5999999999999996 8.4 1 1 4776
4777 2 9.6 3.5999999999999996 9.0 1 1 4777
4778 2 9.6 3.5999999999999996 9.6 1 1 4778
4779 2 9.6 3.5999999999999996 10.2 1 1 4779
4780 2 9.6 4.2 3.0 1 1 4780
4781 2 9.6 4.2 4.8 1 1 4781
4782 2 9.6 4.2 5.3999999999999995 1 1 4782
4783 2 9.6 4.2 6.0 1 1 4783
4784 2 9.6 4.2 6.6 1 1 4784
4785 2 9.6 4.2 7.199999999999999 1 1 4785
4786 2 9.6 4.2 7.8 1 1 4786
4787 2 9.6 4.2 8.4 1 1 4787
4788 2 9.6 4.2 9.0 1 1 4788
4789 2 9.6 4.2 9.6 1 1 4789
4790 2 9.6 4.2 10.2 1 1 4790
4791 2 9.6 4.8 3.0 1 1 4791
4792 2 9.6 4.8 3.5999999999999996 1 1 4792
4793 2 9.6 4.8 4.2 1 1 4793
4794 2 9.6 4.8 4.8 1 1 4794
4795 2 9.6 4.8 5.3999999999999995 1 1 4795
4796 2 9.6 4.8 6.0 1 1 4796
4797 2 9.6 4.8 6.6 1 1 4797
4798 2 9.6 4.8 7.199999999999999 1 1 4798
4799 2 9.6 4.8 9.0 1 1 4799
4800 2 9.6 4.8 9.6 1 1 4800
4801 2 9.6 5.3999999999999995 2.4 1 1 4801
4802 2 9.6 5.3999999999999995 3.5999999999999996 1 1 4802
4803 2 9.6 5.3999999999999995 4.2 1 1 4803
4804 2 9.6 5.3999999999999995 4.8 1 1 4804
4805 2 9.6 5.3999999999999995 5.3999999999999995 1 1 4805
4806 2 9.6 5.3999999999999995 6.6 1 1 4806
4807 2 9.6 5.3999999999999995 7.199999999999999 1 1 4807
4808 2 9.6 5.3999999999999995 7.8 1 1 4808
4809 2 9.6 5.3999999999999995 8.4 1 1 4809
4810 2 9.6 5.3999999999999995 9.0 1 1 4810
4811 2 9.6 5.3999999999999995 9.6 1 1 4811
4812 2 9.6 5.3999999999999995 10.2 1 1 4812
4813 2 9.6 5.3999999999999995 10.799999999999999 1 1 4813
4814 2 9.6 6.0 2.4 1 1 4814
4815 2 9.6 6.0 3.5999999999999996 1 1 4815
4816 2 9.6 6.0 4.2 1 1 4816
4817 2 9.6 6.0 4.8 1 1 4817
4818 2 9.6 6.0 5.3999999999999995 1 1 4818
4819 2 9.6 6.0 6.0 1 1 4819
4820 2 9.6 6.0 6.6 1 1 4820
4821 2 9.6 6.0 7.199999999999999 1 1 4821
4822 2 9.6 6.0 7.8 1 1 4822
4823 2 9.6 6.0 8.4 1 1 4823
4824 2 9.6 6.0 9.0 1 1 4824
4825 2 9.6 6.0 10.799999999999999 1 1 4825
4826 2 9.6 6.6 2.4 1 1 4826
4827 2 9.6 6.6 3.0 1 1 4827
4828 2 9.6 6.6 3.5999999999999996 1 1 4828
4829 2 9.6 6.6 4.2 1 1 4829
4830 2 9.6 6.6 4.8 1 1 4830
4831 2 9.6 6.6 5.3999999999999995 1 1 4831
4832 2 9.6 6.6 6.0 1 1 4832
4833 2 9.6 6.6 6.6 1 1 4833
4834 2 9.6 6.6 7.199999999999999 1 1 4834
4835 2 9.6 6.6 7.8 1 1 4835
4836 2 9.6 6.6 8.4 1 1 4836
4837 2 9.6 6.6 9.0 1 1 4837
4838 2 9.6 6.6 9.6 1 1 4838
4839 2 9.6 6.6 10.2 1 1 4839
4840 2 9.6 6.6 10.799999999999999 1 1 4840
4841 2 9.6 7.199999999999999 2.4 1 1 4841
4842 2 9.6 7.199999999999999 3.5999999999999996 1 1 4842
4843 2 9.6 7.199999999999999 4.2 1 1 4843
4844 2 9.6 7.199999999999999 5.3999999999999995 1 1 4844
4845 2 9.6 7.199999999999999 6.0 1 1 4845
4846 2 9.6 7.199999999999999 6.6 1 1 4846
4847 2 9.6 7.199999999999999 7.199999999999999 1 1 4847
4848 2 9.6 7.199999999999999 7.8 1 1 4848
4849 2 9.6 7.199999999999999 8.4 1 1 4849
4850 2 9.6 7.199999999999999 9.0 1 1 4850
4851 2 9.6 7.199999999999999 9.6 1 1 4851
4852 2 9.6 7.199999999999999 10.2 1 1 4852
4853 2 9.6 7.8 3.0 1 1 4853
4854 2 9.6 7.8 3.5999999999999996 1 1 4854
4855 2 9.6 7.8 4.2 1 1 4855
4856 2 9.6 7.8 4.8 1 1 4856
4857 2 9.6 7.8 5.3999999999999995 1 1 4857
4858 2 9.6 7.8 6.0 1 1 4858
4859 2 9.6 7.8 6.6 1 1 4859
4860 2 9.6 7.8 7.199999999999999 1 1 4860
4861 2 9.6 7.8 7.8 1 1 4861
4862 2 9.6 7.8 8.4 1 1 4862
4863 2 9.6 7.8 9.0 1 1 4863
4864 2 9.6 7.8 9.6 1 1 4864
4865 2 9.6 7.8 10.2 1 1 4865
4866 2 9.6 7.8 10.799999999999999 1 1 4866
4867 2 9.6 8.4 2.4 1 1 4867
4868 2 9.6 8.4 3.0 1 1 4868
4869 2 9.6 8.4 3.5999999999999996 1 1 4869
4870 2 9.6 8.4 4.2 1 1 4870
4871 2 9.6 8.4 4.8 1 1 4871
4872 2 9.6 8.4 5.3999999999999995 1 1 4872
4873 2 9.6 8.4 6.0 1 1 4873
4874 2 9.6 8.4 6.6 1 1 4874
4875 2 9.6 8.4 7.199999999999999 1 1 4875
4876 2 9.6 8.4 7.8 1 1 4876
4877 2 9.6 8.4 8.4 1 1 4877
4878 2 9.6 8.4 9.0 1 1 4878
4879 2 9.6 8.4 9.6 1 1 4879
4880 2 9.6 8.4 10.2 1 1 4880
4881 2 9.6 8.4 10.799999999999999 1 1 4881
4882 2 9.6 9.0 3.0 1 1 4882
4883 2 9.6 9.0 3.5999999999999996 1 1 4883
4884 2 9.6 9.0 4.2 1 1 4884
4885 2 9.6 9.0 4.8 1 1 4885
4886 2 9.6 9.0 5.3999999999999995 1 1 4886
4887 2 9.6 9.0 6.0 1 1 4887
4888 2 9.6 9.0 6.6 1 1 4888
4889 2 9.6 9.0 7.199999999999999 1 1 4889
4890 2 9.6 9.0 8.4 1 1 4890
4891 2 9.6 9.0 9.0 1 1 4891
4892 2 9.6 9.0 9.6 1 1 4892
4893 2 9.6 9.0 10.2 1 1 4893
4894 2 9.6 9.6 3.5999999999999996 1 1 4894
4895 2 9.6 9.6 4.2 1 1 4895
4896 2 9.6 9.6 4.8 1 1 4896
4897 2 9.6 9.6 5.3999999999999995 1 1 4897
4898 2 9.6 9.6 6.0 1 1 4898
4899 2 9.6 9.6 6.6 1 1 4899
4900 2 9.6 9.6 7.199999999999999 1 1 4900
4901 2 9.6 9.6 7.8 1 1 4901
4902 2 9.6 9.6 8.4 1 1 4902
4903 2 9.6 9.6 9.0 1 1 4903
4904 2 9.6 9.6 9.6 1 1 4904
4905 2 9.6 9.6 10.2 1 1 4905
4906 2 9.6 10.2 3.5999999999999996 1 1 4906
4907 2 9.6 10.2 4.2 1 1 4907
4908 2 9.6 10.2 4.8 1 1 4908
4909 2 9.6 10.2 5.3999999999999995 1 1 4909
4910 2 9.6 10.2 6.0 1 1 4910
4911 2 9.6 10.2 6.6 1 1 4911
4912 2 9.6 10.2 7.199999999999999 1 1 4912
4913 2 9.6 10.2 7.8 1 1 4913
4914 2 9.6 10.2 8.4 1 1 4914
4915 2 9.6 10.2 9.0 1 1 4915
4916 2 9.6 10.2 9.6 1 1 4916
4917 2 9.6 10.799999999999999 5.3999999999999995 1 1 4917
4918 2 9.6 10.799999999999999 6.0 1 1 4918
4919 2 9.6 10.799999999999999 6.6 1 1 4919
4920 2 9.6 10.799999999999999 7.199999999999999 1 1 4920
4921 2 9.6 10.799999999999999 8.4 1 1 4921
4922 2 10.2 2.4 5.3999999999999995 1 1 4922
4923 2 10.2 2.4 6.0 1 1 4923
4924 2 10.2 2.4 6.6 1 1 4924
4925 2 10.2 2.4 7.199999999999999 1 1 4925
4926 2 10.2 2.4 7.8 1 1 4926
4927 2 10.2 2.4 8.4 1 1 4927
4928 2 10.2 3.0 4.2 1 1 4928
4929 2 10.2 3.0 4.8 1 1 4929
4930 2 10.2 3.0 5.3999999999999995 1 1 4930
4931 2 10.2 3.0 6.0 1 1 4931
4932 2 10.2 3.0 6.6 1 1 4932
4933 2 10.2 3.0 7.199999999999999 1 1 4933
4934 2 10.2 3.0 7.8 1 1 4934
4935 2 10.2 3.0 8.4 1 1 4935
4936 2 10.2 3.0 9.0 1 1 4936
4937 2 10.2 3.5999999999999996 3.5999999999999996 1 1 4937
4938 2 10.2 3.5999999999999996 4.2 1 1 4938
4939 2 10.2 3.5999999999999996 4.8 1 1 4939
4940 2 10.2 3.5999999999999996 5.3999999999999995 1 1 4940
4941 2 10.2 3.5999999999999996 6.0 1 1 4941
4942 2 10.2 3.5999999999999996 6.6 1 1 4942
4943 2 10.2 3.5999999999999996 7.199999999999999 1 1 4943
4944 2 10.2 3.5999999999999996 8.4 1 1 4944
4945 2 10.2 3.5999999999999996 9.0 1 1 4945
4946 2 10.2 3.5999999999999996 9.6 1 1 4946
4947 2 10.2 4.2 3.5999999999999996 1 1 4947
4948 2 10.2 4.2 4.2 1 1 4948
4949 2 10.2 4.2 4.8 1 1 4949
4950 2 10.2 4.2 5.3999999999999995 1 1 4950
4951 2 10.2 4.2 6.0 1 1 4951
4952 2 10.2 4.2 6.6 1 1 4952
4953 2 10.2 4.2 7.199999999999999 1 1 4953
4954 2 10.2 4.2 7.8 1 1 4954
4955 2 10.2 4.2 8.4 1 1 4955
4956 2 10.2 4.2 9.0 1 1 4956
4957 2 10.2 4.2 9.6 1 1 4957
4958 2 10.2 4.2 10.2 1 1 4958
4959 2 10.2 4.8 3.5999999999999996 1 1 4959
4960 2 10.2 4.8 4.2 1 1 4960
4961 2 10.2 4.8 4.8 1 1 4961
4962 2 10.2 4.8 5.3999999999999995 1 1 4962
4963 2 10.2 4.8 6.0 1 1 4963
4964 2 10.2 4.8 7.199999999999999 1 1 4964
4965 2 10.2 4.8 7.8 1 1 4965
4966 2 10.2 4.8 8.4 1 1 4966
4967 2 10.2 4.8 9.0 1 1 4967
4968 2 10.2 4.8 9.6 1 1 4968
4969 2 10.2 4.8 10.2 1 1 4969
4970 2 10.2 4.8 10.799999999999999 1 1 4970
4971 2 10.2 5.3999999999999995 3.0 1 1 4971
4972 2 10.2 5.3999999999999995 3.5999999999999996 1 1 4972
4973 2 10.2 5.3999999999999995 4.2 1 1 4973
4974 2 10.2 5.3999999999999995 4.8 1 1 4974
4975 2 10.2 5.3999999999999995 5.3999999999999995 1 1 4975
4976 2 10.2 5.3999999999999995 6.0 1 1 4976
4977 2 10.2 5.3999999999999995 6.6 1 1 4977
4978 2 10.2 5.3999999999999995 7.8 1 1 4978
4979 2 10.2 5.3999999999999995 8.4 1 1 4979
4980 2 10.2 5.3999999999999995 9.0 1 1 4980
4981 2 10.2 5.3999999999999995 9.6 1 1 4981
4982 2 10.2 5.3999999999999995 10.2 1 1 4982
4983 2 10.2 5.3999999999999995 10.799999999999999 1 1 4983
4984 2 10.2 6.0 3.0 1 1 4984
4985 2 10.2 6.0 4.2 1 1 4985
4986 2 10.2 6.0 4.8 1 1 4986
4987 2 10.2 6.0 6.0 1 1 4987
4988 2 10.2 6.0 6.6 1 1 4988
4989 2 10.2 6.0 7.8 1 1 4989
4990 2 10.2 6.0 8.4 1 1 4990
4991 2 10.2 6.0 9.0 1 1 4991
4992 2 10.2 6.0 9.6 1 1 4992
4993 2 10.2 6.0 10.2 1 1 4993
4994 2 10.2 6.0 10.799999999999999 1 1 4994
4995 2 10.2 6.6 2.4 1 1 4995
4996 2 10.2 6.6 3.0 1 1 4996
4997 2 10.2 6.6 3.5999999999999996 1 1 4997
4998 2 10.2 6.6 4.2 1 1 4998
4999 2 10.2 6.6 4.8 1 1 4999
5000 2 10.2 6.6 5.3999999999999995 1 1 5000
5001 2 10.2 6.6 6.0 1 1 5001
5002 2 10.2 6.6 6.6 1 1 5002
5003 2 10.2 6.6 7.199999999999999 1 1 5003
5004 2 10.2 6.6 8.4 1 1 5004
5005 2 10.2 6.6 9.0 1 1 5005
5006 2 10.2 6.6 9.6 1 1 5006
5007 2 10.2 6.6 10.2 1 1 5007
5008 2 10.2 6.6 10.799999999999999 1 1 5008
5009 2 10.2 7.199999999999999 2.4 1 1 5009
5010 2 10.2 7.199999999999999 3.0 1 1 5010
5011 2 10.2 7.199999999999999 3.5999999999999996 1 1 5011
5012 2 10.2 7.199999999999999 4.8 1 1 5012
5013 2 10.2 7.199999999999999 5.3999999999999995 1 1 5013
5014 2 10.2 7.199999999999999 6.0 1 1 5014
5015 2 10.2 7.199999999999999 6.6 1 1 5015
5016 2 10.2 7.199999999999999 7.199999999999999 1 1 5016
5017 2 10.2 7.199999999999999 7.8 1 1 5017
5018 2 10.2 7.199999999999999 9.0 1 1 5018
5019 2 10.2 7.199999999999999 9.6 1 1 5019
5020 2 10.2 7.199999999999999 10.2 1 1 5020
5021 2 10.2 7.199999999999999 10.799999999999999 1 1 5021
5022 2 10.2 7.8 2.4 1 1 5022
5023 2 10.2 7.8 3.0 1 1 5023
5024 2 10.2 7.8 3.5999999999999996 1 1 5024
5025 2 10.2 7.8 4.2 1 1 5025
5026 2 10.2 7.8 4.8 1 1 5026
5027 2 10.2 7.8 5.3999999999999995 1 1 5027
5028 2 10.2 7.8 6.0 1 1 5028
5029 2 10.2 7.8 7.199999999999999 1 1 5029
5030 2 10.2 7.8 9.0 1 1 5030
5031 2 10.2 7.8 9.6 1 1 5031
5032 2 10.2 7.8 10.2 1 1 5032
5033 2 10.2 7.8 10.799999999999999 1 1 5033
5034 2 10.2 8.4 2.4 1 1 5034
5035 2 10.2 8.4 3.0 1 1 5035
5036 2 10.2 8.4 3.5999999999999996 1 1 5036
5037 2 10.2 8.4 4.2 1 1 5037
5038 2 10.2 8.4 4.8 1 1 5038
5039 2 10.2 8.4 5.3999999999999995 1 1 5039
5040 2 10.2 8.4 6.6 1 1 5040
5041 2 10.31906490832274 8.279047919899913 7.552625502677499 1 1 5041
5042 2 10.2 8.4 9.0 1 1 5042
5043 2 10.2 8.4 9.6 1 1 5043
5044 2 10.2 8.4 10.2 1 1 5044
5045 2 10.2 8.4 10.799999999999999 1 1 5045
5046 2 10.2 9.0 3.0 1 1 5046
5047 2 10.2 9.0 3.5999999999999996 1 1 5047
5048 2 10.2 9.0 4.8 1 1 5048
5049 2 10.2 9.0 6.0 1 1 5049
5050 2 10.2 9.0 6.6 1 1 5050
5051 2 10.2 9.0 7.199999999999999 1 1 5051
5052 2 10.2 9.0 7.8 1 1 5052
5053 2 10.2 9.0 8.4 1 1 5053
5054 2 10.2 9.0 10.2 1 1 5054
5055 2 10.2 9.6 3.5999999999999996 1 1 5055
5056 2 10.2 9.6 4.2 1 1 5056
5057 2 10.2 9.6 4.8 1 1 5057
5058 2 10.2 9.6 5.3999999999999995 1 1 5058
5059 2 10.2 9.6 6.0 1 1 5059
5060 2 10.2 9.6 6.6 1 1 5060
5061 2 10.2 9.6 7.199999999999999 1 1 5061
5062 2 10.2 9.6 7.8 1 1 5062
5063 2 10.2 9.6 8.4 1 1 5063
5064 2 10.2 9.6 9.0 1 1 5064
5065 2 10.2 9.6 9.6 1 1 5065
5066 2 10.2 10.2 3.5999999999999996 1 1 5066
5067 2 10.2 10.2 4.8 1 1 5067
5068 2 10.2 10.2 5.3999999999999995 1 1 5068
5069 2 10.2 10.2 6.0 1 1 5069
5070 2 10.2 10.2 8.4 1 1 5070
5071 2 10.2 10.2 9.0 1 1 5071
5072 2 10.2 10.2 9.6 1 1 5072
5073 2 10.2 10.799999999999999 4.8 1 1 5073
5074 2 10.2 10.799999999999999 5.3999999999999995 1 1 5074
5075 2 10.2 10.799999999999999 6.0 1 1 5075
5076 2 10.2 10.799999999999999 6.6 1 1 5076
5077 2 10.2 10.799999999999999 7.199999999999999 1 1 5077
5078 2 10.2 10.799999999999999 7.8 1 1 5078
5079 2 10.2 10.799999999999999 8.4 1 1 5079
5080 2 10.799999999999999 2.4 5.3999999999999995 1 1 5080
5081 2 10.799999999999999 2.4 6.0 1 1 5081
5082 2 10.799999999999999 2.4 6.6 1 1 5082
5083 2 10.799999999999999 2.4 7.199999999999999 1 1 5083
5084 2 10.799999999999999 2.4 7.8 1 1 5084
5085 2 10.799999999999999 2.4 8.4 1 1 5085
5086 2 10.799999999999999 3.0 4.2 1 1 5086
5087 2 10.799999999999999 3.0 5.3999999999999995 1 1 5087
5088 2 10.799999999999999 3.0 6.0 1 1 5088
5089 2 10.799999999999999 3.0 6.6 1 1 5089
5090 2 10.799999999999999 3.0 7.199999999999999 1 1 5090
5091 2 10.799999999999999 3.0 7.8 1 1 5091
5092 2 10.799999999999999 3.0 8.4 1 1 5092
5093 2 10.799999999999999 3.5999999999999996 3.5999999999999996 1 1 5093
5094 2 10.799999999999999 3.5999999999999996 5.3999999999999995 1 1 5094
5095 2 10.799999999999999 3.5999999999999996 6.6 1 1 5095
5096 2 10.799999999999999 3.5999999999999996 7.199999999999999 1 1 5096
5097 2 10.799999999999999 3.5999999999999996 7.8 1 1 5097
5098 2 10.799999999999999 3.5999999999999996 8.4 1 1 5098
5099 2 10.799999999999999 3.5999999999999996 9.0 1 1 5099
5100 2 10.799999999999999 3.5999999999999996 9.6 1 1 5100
5101 2 10.799999999999999 3.5999999999999996 10.2 1 1 5101
5102 2 10.799999999999999 4.2 3.0 1 1 5102
5103 2 10.799999999999999 4.2 3.5999999999999996 1 1 5103
5104 2 10.799999999999999 4.2 4.2 1 1 5104
5105 2 10.799999999999999 4.2 5.3999999999999995 1 1 5105
5106 2 10.799999999999999 4.2 6.0 1 1 5106
5107 2 10.799999999999999 4.2 6.6 1 1 5107
5108 2 10.799999999999999 4.2 7.199999999999999 1 1 5108
5109 2 10.799999999999999 4.2 7.8 1 1 5109
5110 2 10.799999999999999 4.2 8.4 1 1 5110
5111 2 10.799999999999999 4.2 9.0 1 1 5111
5112 2 10.799999999999999 4.2 9.6 1 1 5112
5113 2 10.799999999999999 4.2 10.2 1 1 5113
5114 2 10.799999999999999 4.8 3.0 1 1 5114
5115 2 10.799999999999999 4.8 3.5999999999999996 1 1 5115
5116 2 10.799999999999999 4.8 4.2 1 1 5116
5117 2 10.799999999999999 4.8 4.8 1 1 5117
5118 2 10.799999999999999 4.8 5.3999999999999995 1 1 5118
5119 2 10.799999999999999 4.8 6.0 1 1 5119
5120 2 10.799999999999999 4.8 6.6 1 1 5120
5121 2 10.799999999999999 4.8 7.199999999999999 1 1 5121
5122 2 10.799999999999999 4.8 7.8 1 1 5122
5123 2 10.799999999999999 4.8 8.4 1 1 5123
5124 2 10.799999999999999 4.8 9.0 1 1 5124
5125 2 10.799999999999999 4.8 9.6 1 1 5125
5126 2 10.799999999999999 4.8 10.799999999999999 1 1 5126
5127 2 10.799999999999999 5.3999999999999995 2.4 1 1 5127
5128 2 10.799999999999999 5.3999999999999995 3.0 1 1 5128
5129 2 10.799999999999999 5.3999999999999995 3.5999999999999996 1 1 5129
5130 2 10.799999999999999 5.3999999999999995 4.2 1 1 5130
5131 2 10.799999999999999 5.3999999999999995 4.8 1 1 5131
5132 2 10.799999999999999 5.3999999999999995 5.3999999999999995 1 1 5132
5133 2 10.799999999999999 5.3999999999999995 6.0 1 1 5133
5134 2 10.799999999999999 5.3999999999999995 6.6 1 1 5134
5135 2 10.799999999999999 5.3999999999999995 7.199999999999999 1 1 5135
5136 2 10.799999999999999 5.3999999999999995 7.8 1 1 5136
5137 2 10.799999999999999 5.3999999999999995 8.4 1 1 5137
5138 2 10.799999999999999 5.3999999999999995 9.0 1 1 5138
5139 2 10.799999999999999 5.3999999999999995 9.6 1 1 5139
5140 2 10.799999999999999 5.3999999999999995 10.2 1 1 5140
5141 2 10.799999999999999 5.3999999999999995 10.799999999999999 1 1 5141
5142 2 10.799999999999999 6.0 2.4 1 1 5142
5143 2 10.799999999999999 6.0 3.0 1 1 5143
5144 2 10.799999999999999 6.0 3.5999999999999996 1 1 5144
5145 2 10.799999999999999 6.0 4.2 1 1 5145
5146 2 10.799999999999999 6.0 4.8 1 1 5146
5147 2 10.799999999999999 6.0 5.3999999999999995 1 1 5147
5148 2 10.799999999999999 6.0 6.0 1 1 5148
5149 2 10.799999999999999 6.0 6.6 1 1 5149
5150 2 10.799999999999999 6.0 7.8 1 1 5150
5151 2 10.799999999999999 6.0 8.4 1 1 5151
5152 2 10.799999999999999 6.0 9.6 1 1 5152
5153 2 10.799999999999999 6.0 10.2 1 1 5153
5154 2 10.799999999999999 6.0 10.799999999999999 1 1 5154
5155 2 10.799999999999999 6.6 2.4 1 1 5155
5156 2 10.799999999999999 6.6 3.0 1 1 5156
5157 2 10.799999999999999 6.6 3.5999999999999996 1 1 5157
5158 2 10.799999999999999 6.6 4.2 1 1 5158
5159 2 10.799999999999999 6.6 4.8 1 1 5159
5160 2 10.799999999999999 6.6 6.0 1 1 5160
5161 2 10.799999999999999 6.6 6.6 1 1 5161
5162 2 10.799999999999999 6.6 7.199999999999999 1 1 5162
5163 2 10.799999999999999 6.6 7.8 1 1 5163
5164 2 10.799999999999999 6.6 8.4 1 1 5164
5165 2 10.799999999999999 6.6 9.0 1 1 5165
5166 2 10.799999999999999 6.6 9.6 1 1 5166
5167 2 10.799999999999999 6.6 10.799999999999999 1 1 5167
5168 2 10.799999999999999 7.199999999999999 2.4 1 1 5168
5169 2 10.799999999999999 7.199999999999999 3.5999999999999996 1 1 5169
5170 2 10.799999999999999 7.199999999999999 4.2 1 1 5170
5171 2 10.799999999999999 7.199999999999999 4.8 1 1 5171
5172 2 10.799999999999999 7.199999999999999 5.3999999999999995 1 1 5172
5173 2 10.799999999999999 7.199999999999999 6.0 1 1 5173
5174 2 10.799999999999999 7.199999999999999 7.199999999999999 1 1 5174
5175 2 10.799999999999999 7.199999999999999 7.8 1 1 5175
5176 2 10.799999999999999 7.199999999999999 8.4 1 1 5176
5177 2 10.799999999999999 7.199999999999999 9.0 1 1 5177
5178 2 10.799999999999999 7.199999999999999 9.6 1 1 5178
5179 2 10.799999999999999 7.199999999999999 10.2 1 1 5179
5180 2 10.799999999999999 7.199999999999999 10.799999999999999 1 1 5180
5181 2 10.799999999999999 7.8 2.4 1 1 5181
5182 2 10.799999999999999 7.8 3.0 1 1 5182
5183 2 10.799999999999999 7.8 3.5999999999999996 1 1 5183
5184 2 10.799999999999999 7.8 4.2 1 1 5184
5185 2 10.799999999999999 7.8 4.8 1 1 5185
5186 2 10.799999999999999 7.8 6.0 1 1 5186
5187 2 10.799999999999999 7.8 6.6 1 1 5187
5188 2 10.799999999999999 7.8 7.199999999999999 1 1 5188
5189 2 10.799999999999999 7.8 7.8 1 1 5189
5190 2 10.799999999999999 7.8 9.0 1 1 5190
5191 2 10.799999999999999 7.8 9.6 1 1 5191
5192 2 10.799999999999999 7.8 10.799999999999999 1 1 5192
5193 2 10.799999999999999 8.4 2.4 1 1 5193
5194 2 10.799999999999999 8.4 3.0 1 1 5194
5195 2 10.799999999999999 8.4 3.5999999999999996 1 1 5195
5196 2 10.799999999999999 8.4 4.2 1 1 5196
5197 2 10.799999999999999 8.4 4.8 1 1 5197
5198 2 10.799999999999999 8.4 5.3999999999999995 1 1 5198
5199 2 10.799999999999999 8.4 6.6 1 1 5199
5200 2 10.799999999999999 8.4 7.199999999999999 1 1 5200
5201 2 10.799999999999999 8.4 8.4 1 1 5201
5202 2 10.799999999999999 8.4 9.0 1 1 5202
5203 2 10.799999999999999 8.4 9.6 1 1 5203
5204 2 10.799999999999999 8.4 10.2 1 1 5204
5205 2 10.799999999999999 8.4 10.799999999999999 1 1 5205
5206 2 10.799999999999999 9.0 3.0 1 1 5206
5207 2 10.799999999999999 9.0 3.5999999999999996 1 1 5207
5208 2 10.799999999999999 9.0 4.2 1 1 5208
5209 2 10.799999999999999 9.0 5.3999999999999995 1 1 5209
5210 2 10.799999999999999 9.0 6.0 1 1 5210
5211 2 10.799999999999999 9.0 6.6 1 1 5211
5212 2 10.799999999999999 9.0 7.199999999999999 1 1 5212
5213 2 10.799999999999999 9.0 7.8 1 1 5213
5214 2 10.799999999999999 9.0 8.4 1 1 5214
5215 2 10.799999999999999 9.0 9.0 1 1 5215
5216 2 10.799999999999999 9.0 9.6 1 1 5216
5217 2 10.799999999999999 9.0 10.2 1 1 5217
5218 2 10.799999999999999 9.6 3.5999999999999996 1 1 5218
5219 2 10.799999999999999 9.6 4.2 1 1 5219
5220 2 10.799999999999999 9.6 4.8 1 1 5220
5221 2 10.799999999999999 9.6 5.3999999999999995 1 1 5221
5222 2 10.799999999999999 9.6 6.0 1 1 5222
5223 2 10.799999999999999 9.6 6.6 1 1 5223
5224 2 10.799999999999999 9.6 7.199999999999999 1 1 5224
5225 2 10.799999999999999 9.6 7.8 1 1 5225
5226 2 10.799999999999999 9.6 8.4 1 1 5226
5227 2 10.799999999999999 9.6 9.0 1 1 5227
5228 2 10.799999999999999 9.6 9.6 1 1 5228
5229 2 10.799999999999999 10.2 3.5999999999999996 1 1 5229
5230 2 10.799999999999999 10.2 4.2 1 1 5230
5231 2 10.799999999999999 10.2 4.8 1 1 5231
5232 2 10.799999999999999 10.2 5.3999999999999995 1 1 5232
5233 2 10.799999999999999 10.2 6.0 1 1 5233
5234 2 10.799999999999999 10.2 6.6 1 1 5234
5235 2 10.799999999999999 10.2 7.199999999999999 1 1 5235
5236 2 10.799999999999999 10.2 7.8 1 1 5236
5237 2 10.799999999999999 10.2 8.4 1 1 5237
5238 2 10.799999999999999 10.2 9.0 1 1 5238
5239 2 10.799999999999999 10.2 9.6 1 1 5239
5240 2 10.799999999999999 10.799999999999999 4.8 1 1 5240
5241 2 10.799999999999999 10.799999999999999 5.3999999999999995 1 1 5241
5242 2 10.799999999999999 10.799999999999999 6.0 1 1 5242
5243 2 10.799999999999999 10.799999999999999 6.6 1 1 5243
5244 2 10.799999999999999 10.799999999999999 7.199999999999999 1 1 5244
5245 2 10.799999999999999 10.799999999999999 7.8 1 1 5245
5246 2 10.799999999999999 10.799999999999999 8.4 1 1 5246
5247 2 11.4 2.4 5.3999999999999995 1 1 5247
5248 2 11.4 2.4 6.0 1 1 5248
5249 2 11.4 2.4 6.6 1 1 5249
5250 2 11.4 2.4 7.199999999999999 1 1 5250
5251 2 11.4 2.4 7.8 1 1 5251
5252 2 11.4 2.4 8.4 1 1 5252
5253 2 11.4 3.0 4.2 1 1 5253
5254 2 11.4 3.0 4.8 1 1 5254
5255 2 11.4 3.0 5.3999999999999995 1 1 5255
5256 2 11.4 3.0 6.0 1 1 5256
5257 2 11.4 3.0 6.6 1 1 5257
5258 2 11.4 3.0 7.8 1 1 5258
5259 2 11.4 3.0 8.4 1 1 5259
5260 2 11.4 3.0 9.0 1 1 5260
5261 2 11.4 3.5999999999999996 3.5999999999999996 1 1 5261
5262 2 11.4 3.5999999999999996 4.2 1 1 5262
5263 2 11.4 3.5999999999999996 4.8 1 1 5263
5264 2 11.4 3.5999999999999996 6.0 1 1 5264
5265 2 11.4 3.5999999999999996 7.199999999999999 1 1 5265
5266 2 11.4 3.5999999999999996 7.8 1 1 5266
5267 2 11.4 3.5999999999999996 9.0 1 1 5267
5268 2 11.4 3.5999999999999996 9.6 1 1 5268
5269 2 11.4 4.2 3.0 1 1 5269
5270 2 11.4 4.2 3.5999999999999996 1 1 5270
5271 2 11.4 4.2 4.2 1 1 5271
5272 2 11.4 4.2 4.8 1 1 5272
5273 2 11.4 4.2 5.3999999999999995 1 1 5273
5274 2 11.4 4.2 6.0 1 1 5274
5275 2 11.4 4.2 6.6 1 1 5275
5276 2 11.4 4.2 7.199999999999999 1 1 5276
5277 2 11.4 4.2 7.8 1 1 5277
5278 2 11.4 4.2 8.4 1 1 5278
5279 2 11.4 4.2 9.0 1 1 5279
5280 2 11.4 4.2 9.6 1 1 5280
5281 2 11.4 4.2 10.2 1 1 5281
5282 2 11.4 4.8 3.0 1 1 5282
5283 2 11.4 4.8 3.5999999999999996 1 1 5283
5284 2 11.4 4.8 4.2 1 1 5284
5285 2 11.4 4.8 4.8 1 1 5285
5286 2 11.4 4.8 6.0 1 1 5286
5287 2 11.4 4.8 6.6 1 1 5287
5288 2 11.4 4.8 7.199999999999999 1 1 5288
5289 2 11.4 4.8 7.8 1 1 5289
5290 2 11.4 4.8 8.4 1 1 5290
5291 2 11.4 4.8 9.0 1 1 5291
5292 2 11.4 4.8 9.6 1 1 5292
5293 2 11.4 4.8 10.2 1 1 5293
5294 2 11.4 4.8 10.799999999999999 1 1 5294
5295 2 11.4 5.3999999999999995 2.4 1 1 5295
5296 2 11.4 5.3999999999999995 3.0 1 1 5296
5297 2 11.4 5.3999999999999995 3.5999999999999996 1 1 5297
5298 2 11.4 5.3999999999999995 4.2 1 1 5298
5299 2 11.4 5.3999999999999995 4.8 1 1 5299
5300 2 11.4 5.3999999999999995 5.3999999999999995 1 1 5300
5301 2 11.4 5.3999999999999995 6.0 1 1 5301
5302 2 11.4 5.3999999999999995 6.6 1 1 5302
5303 2 11.4 5.3999999999999995 7.199999999999999 1 1 5303
5304 2 11.4 5.3999999999999995 7.8 1 1 5304
5305 2 11.4 5.3999999999999995 8.4 1 1 5305
5306 2 11.4 5.3999999999999995 9.6 1 1 5306
5307 2 11.4 5.3999999999999995 10.2 1 1 5307
5308 2 11.4 5.3999999999999995 10.799999999999999 1 1 5308
5309 2 11.4 6.0 3.5999999999999996 1 1 5309
5310 2 11.4 6.0 4.2 1 1 5310
5311 2 11.4 6.0 4.8 1 1 5311
5312 2 11.4 6.0 5.3999999999999995 1 1 5312
5313 2 11.4 6.0 6.0 1 1 5313
5314 2 11.4 6.0 6.6 1 1 5314
5315 2 11.4 6.0 7.199999999999999 1 1 5315
5316 2 11.4 6.0 8.4 1 1 5316
5317 2 11.4 6.0 9.0 1 1 5317
5318 2 11.4 6.0 9.6 1 1 5318
5319 2 11.4 6.0 10.2 1 1 5319
5320 2 11.4 6.0 10.799999999999999 1 1 5320
5321 2 11.4 6.6 2.4 1 1 5321
5322 2 11.4 6.6 3.5999999999999996 1 1 5322
5323 2 11.4 6.6 4.2 1 1 5323
5324 2 11.4 6.6 5.3999999999999995 1 1 5324
5325 2 11.4 6.6 6.0 1 1 5325
5326 2 11.4 6.6 6.6 1 1 5326
5327 2 11.4 6.6 7.199999999999999 1 1 5327
5328 2 11.4 6.6 7.8 1 1 5328
5329 2 11.4 6.6 8.4 1 1 5329
5330 2 11.4 6.6 9.0 1 1 5330
5331 2 11.4 6.6 9.6 1 1 5331
5332 2 11.4 6.6 10.2 1 1 5332
5333 2 11.4 6.6 10.799999999999999 1 1 5333
5334 2 11.4 7.199999999999999 2.4 1 1 5334
5335 2 11.4 7.199999999999999 3.0 1 1 5335
5336 2 11.4 7.199999999999999 3.5999999999999996 1 1 5336
5337 2 11.4 7.199999999999999 4.2 1 1 5337
5338 2 11.4 7.199999999999999 4.8 1 1 5338
5339 2 11.4 7.199999999999999 5.3999999999999995 1 1 5339
5340 2 11.4 7.199999999999999 6.0 1 1 5340
5341 2 11.4 7.199999999999999 6.6 1 1 5341
5342 2 11.4 7.199999999999999 7.199999999999999 1 1 5342
5343 2 11.4 7.199999999999999 7.8 1 1 5343
5344 2 11.4 7.199999999999999 8.4 1 1 5344
5345 2 11.4 7.199999999999999 9.0 1 1 5345
5346 2 11.4 7.199999999999999 10.2 1 1 5346
5347 2 11.4 7.199999999999999 10.799999999999999 1 1 5347
5348 2 11.4 7.8 2.4 1 1 5348
5349 2 11.4 7.8 3.0 1 1 5349
5350 2 11.4 7.8 3.5999999999999996 1 1 5350
5351 2 11.4 7.8 4.2 1 1 5351
5352 2 11.4 7.8 4.8 1 1 5352
5353 2 11.4 7.8 5.3999999999999995 1 1 5353
5354 2 11.4 7.8 6.0 1 1 5354
5355 2 11.4 7.8 7.199999999999999 1 1 5355
5356 2 11.4 7.8 7.8 1 1 5356
5357 2 11.4 7.8 8.4 1 1 5357
5358 2 11.4 7.8 9.0 1 1 5358
5359 2 11.4 7.8 9.6 1 1 5359
5360 2 11.4 7.8 10.799999999999999 1 1 5360
5361 2 11.4 8.4 2.4 1 1 5361
5362 2 11.4 8.4 3.0 1 1 5362
5363 2 11.4 8.4 3.5999999999999996 1 1 5363
5364 2 11.4 8.4 4.2 1 1 5364
5365 2 11.4 8.4 4.8 1 1 5365
5366 2 11.4 8.4 5.3999999999999995 1 1 5366
5367 2 11.4 8.4 6.0 1 1 5367
5368 2 11.4 8.4 6.6 1 1 5368
5369 2 11.4 8.4 7.8 1 1 5369
5370 2 11.4 8.4 8.4 1 1 5370
5371 2 11.4 8.4 9.6 1 1 5371
5372 2 11.4 8.4 10.2 1 1 5372
5373 2 11.4 8.4 10.799999999999999 1 1 5373
5374 2 11.4 9.0 3.0 1 1 5374
5375 2 11.4 9.0 3.5999999999999996 1 1 5375
5376 2 11.4 9.0 4.2 1 1 5376
5377 2 11.4 9.0 4.8 1 1 5377
5378 2 11.4 9.0 5.3999999999999995 1 1 5378
5379 2 11.4 9.0 6.0 1 1 5379
5380 2 11.4 9.0 6.6 1 1 5380
5381 2 11.4 9.0 7.199999999999999 1 1 5381
5382 2 11.4 9.0 7.8 1 1 5382
5383 2 11.4 9.0 8.4 1 1 5383
5384 2 11.4 9.0 9.0 1 1 5384
5385 2 11.4 9.0 9.6 1 1 5385
5386 2 11.4 9.0 10.2 1 1 5386
5387 2 11.4 9.6 3.5999999999999996 1 1 5387
5388 2 11.4 9.6 4.2 1 1 5388
5389 2 11.4 9.6 4.8 1 1 5389
5390 2 11.4 9.6 5.3999999999999995 1 1 5390
5391 2 11.4 9.6 6.6 1 1 5391
5392 2 11.4 9.6 7.199999999999999 1 1 5392
5393 2 11.4 9.6 7.8 1 1 5393
5394 2 11.4 9.6 8.4 1 1 5394
5395 2 11.4 9.6 9.0 1 1 5395
5396 2 11.4 9.6 9.6 1 1 5396
5397 2 11.4 9.6 10.2 1 1 5397
5398 2 11.4 10.2 3.5999999999999996 1 1 5398
5399 2 11.4 10.2 4.2 1 1 5399
5400 2 11.4 10.2 4.8 1 1 5400
5401 2 11.4 10.2 5.3999999999999995 1 1 5401
5402 2 11.4 10.2 6.0 1 1 5402
5403 2 11.4 10.2 6.6 1 1 5403
5404 2 11.4 10.2 7.199999999999999 1 1 5404
5405 2 11.4 10.2 7.8 1 1 5405
5406 2 11.4 10.2 8.4 1 1 5406
5407 2 11.4 10.2 9.6 1 1 5407
5408 2 11.4 10.799999999999999 4.8 1 1 5408
5409 2 11.4 10.799999999999999 6.0 1 1 5409
5410 2 11.4 10.799999999999999 6.6 1 1 5410
5411 2 11.4 10.799999999999999 7.8 1 1 5411
5412 2 11.4 10.799999999999999 8.4 1 1 5412
5413 2 12.0 2.4 5.3999999999999995 1 1 5413
5414 2 12.0 2.4 6.0 1 1 5414
5415 2 12.0 2.4 6.6 1 1 5415
5416 2 12.0 2.4 7.199999999999999 1 1 5416
5417 2 12.0 2.4 8.4 1 1 5417
5418 2 12.0 3.0 4.2 1 1 5418
5419 2 12.0 3.0 4.8 1 1 5419
5420 2 12.0 3.0 5.3999999999999995 1 1 5420
5421 2 12.0 3.0 6.0 1 1 5421
5422 2 12.0 3.0 6.6 1 1 5422
5423 2 12.0 3.0 8.4 1 1 5423
5424 2 12.0 3.0 9.0 1 1 5424
5425 2 12.0 3.5999999999999996 3.5999999999999996 1 1 5425
5426 2 12.0 3.5999999999999996 4.2 1 1 5426
5427 2 12.0 3.5999999999999996 5.3999999999999995 1 1 5427
5428 2 12.0 3.5999999999999996 6.0 1 1 5428
5429 2 12.0 3.5999999999999996 6.6 1 1 5429
5430 2 12.0 3.5999999999999996 7.199999999999999 1 1 5430
5431 2 12.0 3.5999999999999996 7.8 1 1 5431
5432 2 12.0 3.5999999999999996 9.0 1 1 5432
5433 2 12.0 3.5999999999999996 9.6 1 1 5433
5434 2 12.0 3.5999999999999996 10.2 1 1 5434
5435 2 12.0 4.2 3.0 1 1 5435
5436 2 12.0 4.2 3.5999999999999996 1 1 5436
5437 2 12.0 4.2 4.2 1 1 5437
5438 2 12.0 4.2 4.8 1 1 5438
5439 2 12.0 4.2 5.3999999999999995 1 1 5439
5440 2 12.0 4.2 6.0 1 1 5440
5441 2 12.0 4.2 6.6 1 1 5441
5442 2 12.0 4.2 7.199999999999999 1 1 5442
5443 2 12.0 4.2 7.8 1 1 5443
5444 2 12.0 4.2 8.4 1 1 5444
5445 2 12.0 4.2 9.0 1 1 5445
5446 2 12.0 4.2 9.6 1 1 5446
5447 2 12.0 4.2 10.2 1 1 5447
5448 2 12.0 4.8 3.0 1 1 5448
5449 2 12.0 4.8 3.5999999999999996 1 1 5449
5450 2 12.0 4.8 4.2 1 1 5450
5451 2 12.0 4.8 4.8 1 1 5451
5452 2 12.0 4.8 5.3999999999999995 1 1 5452
5453 2 12.0 4.8 6.0 1 1 5453
5454 2 12.0 4.8 6.6 1 1 5454
5455 2 12.0 4.8 7.199999999999999 1 1 5455
5456 2 12.0 4.8 9.0 1 1 5456
5457 2 12.0 4.8 9.6 1 1 5457
5458 2 12.0 4.8 10.2 1 1 5458
5459 2 12.0 5.3999999999999995 2.4 1 1 5459
5460 2 12.0 5.3999999999999995 3.0 1 1 5460
5461 2 12.0 5.3999999999999995 3.5999999999999996 1 1 5461
5462 2 12.0 5.3999999999999995 4.2 1 1 5462
5463 2 12.0 5.3999999999999995 4.8 1 1 5463
5464 2 12.0 5.3999999999999995 6.0 1 1 5464
5465 2 12.0 5.3999999999999995 6.6 1 1 5465
5466 2 12.0 5.3999999999999995 7.199999999999999 1 1 5466
5467 2 12.0 5.3999999999999995 7.8 1 1 5467
5468 2 12.0 5.3999999999999995 8.4 1 1 5468
5469 2 12.0 5.3999999999999995 9.0 1 1 5469
5470 2 12.0 5.3999999999999995 9.6 1 1 5470
5471 2 12.0 5.3999999999999995 10.2 1 1 5471
5472 2 12.0 6.0 2.4 1 1 5472
5473 2 12.0 6.0 3.0 1 1 5473
5474 2 12.0 6.0 3.5999999999999996 1 1 5474
5475 2 12.0 6.0 4.2 1 1 5475
5476 2 12.0 6.0 4.8 1 1 5476
5477 2 12.0 6.0 5.3999999999999995 1 1 5477
5478 2 12.0 6.0 6.6 1 1 5478
5479 2 12.0 6.0 7.8 1 1 5479
5480 2 12.0 6.0 8.4 1 1 5480
5481 2 12.0 6.0 9.0 1 1 5481
5482 2 12.0 6.0 9.6 1 1 5482
5483 2 12.0 6.0 10.2 1 1 5483
5484 2 12.0 6.0 10.799999999999999 1 1 5484
5485 2 12.0 6.6 2.4 1 1 5485
5486 2 12.0 6.6 3.0 1 1 5486
5487 2 12.0 6.6 3.5999999999999996 1 1 5487
5488 2 12.0 6.6 4.8 1 1 5488
5489 2 12.0 6.6 6.0 1 1 5489
5490 2 12.0 6.6 6.6 1 1 5490
5491 2 12.0 6.6 7.8 1 1 5491
5492 2 12.0 6.6 8.4 1 1 5492
5493 2 12.0 6.6 9.0 1 1 5493
5494 2 12.0 6.6 9.6 1 1 5494
5495 2 12.0 6.6 10.2 1 1 5495
5496 2 12.0 6.6 10.799999999999999 1 1 5496
5497 2 12.0 7.199999999999999 2.4 1 1 5497
5498 2 12.0 7.199999999999999 3.0 1 1 5498
5499 2 12.0 7.199999999999999 3.5999999999999996 1 1 5499
5500 2 12.0 7.199999999999999 4.2 1 1 5500
5501 2 12.0 7.199999999999999 4.8 1 1 5501
5502 2 12.0 7.199999999999999 5.3999999999999995 1 1 5502
5503 2 12.0 7.199999999999999 6.0 1 1 5503
5504 2 12.0 7.199999999999999 6.6 1 1 5504
5505 2 12.0 7.199999999999999 7.199999999999999 1 1 5505
5506 2 12.0 7.199999999999999 7.8 1 1 5506
5507 2 12.0 7.199999999999999 8.4 1 1 5507
5508 2 12.0 7.199999999999999 9.6 1 1 5508
5509 2 12.0 7.199999999999999 10.2 1 1 5509
5510 2 12.0 7.199999999999999 10.799999999999999 1 1 5510
5511 2 12.0 7.8 2.4 1 1 5511
5512 2 12.0 7.8 3.0 1 1 5512
5513 2 12.0 7.8 3.5999999999999996 1 1 5513
5514 2 12.0 7.8 4.2 1 1 5514
5515 2 12.0 7.8 4.8 1 1 5515
5516 2 12.0 7.8 5.3999999999999995 1 1 5516
5517 2 12.0 7.8 6.0 1 1 5517
5518 2 12.0 7.8 6.6 1 1 5518
5519 2 12.0 7.8 7.199999999999999 1 1 5519
5520 2 12.0 7.8 7.8 1 1 5520
5521 2 12.0 7.8 8.4 1 1 5521
5522 2 12.0 7.8 9.0 1 1 5522
5523 2 12.0 7.8 9.6 1 1 5523
5524 2 12.0 7.8 10.2 1 1 5524
5525 2 12.0 7.8 10.799999999999999 1 1 5525
5526 2 12.0 8.4 2.4 1 1 5526
5527 2 12.0 8.4 3.0 1 1 5527
5528 2 12.0 8.4 3.5999999999999996 1 1 5528
5529 2 12.0 8.4 4.8 1 1 5529
5530 2 12.0 8.4 5.3999999999999995 1 1 5530
5531 2 12.0 8.4 6.0 1 1 5531
5532 2 12.0 8.4 6.6 1 1 5532
5533 2 12.0 8.4 7.8 1 1 5533
5534 2 12.0 8.4 8.4 1 1 5534
5535 2 12.0 8.4 9.0 1 1 5535
5536 2 12.0 8.4 9.6 1 1 5536
5537 2 12.0 8.4 10.799999999999999 1 1 5537
5538 2 12.0 9.0 3.5999999999999996 1 1 5538
5539 2 12.0 9.0 4.2 1 1 5539
5540 2 12.0 9.0 4.8 1 1 5540
5541 2 12.0 9.0 6.0 1 1 5541
5542 2 12.0 9.0 6.6 1 1 5542
5543 2 12.0 9.0 7.199999999999999 1 1 5543
5544 2 12.0 9.0 8.4 1 1 5544
5545 2 12.0 9.0 9.0 1 1 5545
5546 2 12.0 9.6 3.5999999999999996 1 1 5546
5547 2 12.0 9.6 4.2 1 1 5547
5548 2 12.0 9.6 4.8 1 1 5548
5549 2 12.0 9.6 5.3999999999999995 1 1 5549
5550 2 12.0 9.6 6.0 1 1 5550
5551 2 12.0 9.6 7.199999999999999 1 1 5551
5552 2 12.0 9.6 7.8 1 1 5552
5553 2 12.0 9.6 8.4 1 1 5553
5554 2 12.0 9.6 9.0 1 1 5554
5555 2 12.0 9.6 9.6 1 1 5555
5556 2 12.0 9.6 10.2 1 1 5556
5557 2 12.0 10.2 3.5999999999999996 1 1 5557
5558 2 12.0 10.2 4.2 1 1 5558
5559 2 12.0 10.2 5.3999999999999995 1 1 5559
5560 2 12.0 10.2 6.0 1 1 5560
5561 2 12.0 10.2 7.199999999999999 1 1 5561
5562 2 12.0 10.2 7.8 1 1 5562
5563 2 12.0 10.2 8.4 1 1 5563
5564 2 12.0 10.2 9.0 1 1 5564
5565 2 12.0 10.2 9.6 1 1 5565
5566 2 12.0 10.799999999999999 4.8 1 1 5566
5567 2 12.0 10.799999999999999 5.3999999999999995 1 1 5567
5568 2 12.0 10.799999999999999 6.0 1 1 5568
5569 2 12.0 10.799999999999999 6.6 1 1 5569
5570 2 12.0 10.799999999999999 7.199999999999999 1 1 5570
5571 2 12.0 10.799999999999999 7.8 1 1 5571
5572 2 12.0 10.799999999999999 8.4 1 1 5572
5573 2 12.6 2.4 5.3999999999999995 1 1 5573
5574 2 12.6 2.4 6.0 1 1 5574
5575 2 12.6 2.4 6.6 1 1 5575
5576 2 12.6 2.4 7.199999999999999 1 1 5576
5577 2 12.6 2.4 7.8 1 1 5577
5578 2 12.6 2.4 8.4 1 1 5578
5579 2 12.6 3.0 4.2 1 1 5579
5580 2 12.6 3.0 4.8 1 1 5580
5581 2 12.6 3.0 5.3999999999999995 1 1 5581
5582 2 12.6 3.0 6.6 1 1 5582
5583 2 12.6 3.0 7.8 1 1 5583
5584 2 12.6 3.0 8.4 1 1 5584
5585 2 12.6 3.0 9.0 1 1 5585
5586 2 12.6 3.5999999999999996 3.5999999999999996 1 1 5586
5587 2 12.6 3.5999999999999996 4.8 1 1 5587
5588 2 12.6 3.5999999999999996 5.3999999999999995 1 1 5588
5589 2 12.6 3.5999999999999996 6.0 1 1 5589
5590 2 12.6 3.5999999999999996 6.6 1 1 5590
5591 2 12.6 3.5999999999999996 7.199999999999999 1 1 5591
5592 2 12.6 3.5999999999999996 7.8 1 1 5592
5593 2 12.6 3.5999999999999996 9.0 1 1 5593
5594 2 12.6 3.5999999999999996 9.6 1 1 5594
5595 2 12.6 3.5999999999999996 10.2 1 1 5595
5596 2 12.6 4.2 3.0 1 1 5596
5597 2 12.6 4.2 3.5999999999999996 1 1 5597
5598 2 12.6 4.2 4.2 1 1 5598
5599 2 12.6 4.2 5.3999999999999995 1 1 5599
5600 2 12.6 4.2 6.6 1 1 5600
5601 2 12.6 4.2 7.199999999999999 1 1 5601
5602 2 12.6 4.2 7.8 1 1 5602
5603 2 12.6 4.2 8.4 1 1 5603
5604 2 12.6 4.2 9.6 1 1 5604
5605 2 12.6 4.2 10.2 1 1 5605
5606 2 12.6 4.8 3.0 1 1 5606
5607 2 12.6 4.8 3.5999999999999996 1 1 5607
5608 2 12.6 4.8 4.2 1 1 5608
5609 2 12.6 4.8 4.8 1 1 5609
5610 2 12.6 4.8 5.3999999999999995 1 1 5610
5611 2 12.6 4.8 6.6 1 1 5611
5612 2 12.6 4.8 7.199999999999999 1 1 5612
5613 2 12.6 4.8 7.8 1 1 5613
5614 2 12.6 4.8 9.0 1 1 5614
5615 2 12.6 4.8 9.6 1 1 5615
5616 2 12.6 4.8 10.2 1 1 5616
5617 2 12.6 4.8 10.799999999999999 1 1 5617
5618 2 12.6 5.3999999999999995 2.4 1 1 5618
5619 2 12.6 5.3999999999999995 3.0 1 1 5619
5620 2 12.6 5.3999999999999995 3.5999999999999996 1 1 5620
5621 2 12.6 5.3999999999999995 4.8 1 1 5621
5622 2 12.6 5.3999999999999995 5.3999999999999995 1 1 5622
5623 2 12.6 5.3999999999999995 6.0 1 1 5623
5624 2 12.6 5.3999999999999995 6.6 1 1 5624
5625 2 12.6 5.3999999999999995 7.199999999999999 1 1 5625
5626 2 12.6 5.3999999999999995 8.4 1 1 5626
5627 2 12.6 5.3999999999999995 9.0 1 1 5627
5628 2 12.6 5.3999999999999995 9.6 1 1 5628
5629 2 12.6 5.3999999999999995 10.799999999999999 1 1 5629
5630 2 12.6 6.0 3.5999999999999996 1 1 5630
5631 2 12.6 6.0 5.3999999999999995 1 1 5631
5632 2 12.6 6.0 6.0 1 1 5632
5633 2 12.6 6.0 6.6 1 1 5633
5634 2 12.6 6.0 7.199999999999999 1 1 5634
5635 2 12.6 6.0 7.8 1 1 5635
5636 2 12.6 6.0 9.0 1 1 5636
5637 2 12.6 6.0 9.6 1 1 5637
5638 2 12.6 6.0 10.799999999999999 1 1 5638
5639 2 12.6 6.6 2.4 1 1 5639
5640 2 12.6 6.6 3.0 1 1 5640
5641 2 12.6 6.6 4.2 1 1 5641
5642 2 12.6 6.6 4.8 1 1 5642
5643 2 12.6 6.6 5.3999999999999995 1 1 5643
5644 2 12.6 6.6 6.0 1 1 5644
5645 2 12.6 6.6 6.6 1 1 5645
5646 2 12.6 6.6 7.199999999999999 1 1 5646
5647 2 12.6 6.6 7.8 1 1 5647
5648 2 12.6 6.6 9.0 1 1 5648
5649 2 12.6 6.6 9.6 1 1 5649
5650 2 12.6 6.6 10.2 1 1 5650
5651 2 12.6 6.6 10.799999999999999 1 1 5651
5652 2 12.6 7.199999999999999 2.4 1 1 5652
5653 2 12.6 7.199999999999999 3.0 1 1 5653
5654 2 12.6 7.199999999999999 4.2 1 1 5654
5655 2 12.6 7.199999999999999 4.8 1 1 5655
5656 2 12.6 7.199999999999999 5.3999999999999995 1 1 5656
5657 2 12.6 7.199999999999999 6.0 1 1 5657
5658 2 12.6 7.199999999999999 6.6 1 1 5658
5659 2 12.6 7.199999999999999 7.199999999999999 1 1 5659
5660 2 12.719064908322741 7.079047919899916 8.152625502677504 1 1 5660
5661 2 12.6 7.199999999999999 9.0 1 1 5661
5662 2 12.6 7.199999999999999 9.6 1 1 5662
5663 2 12.6 7.199999999999999 10.2 1 1 5663
5664 2 12.6 7.8 2.4 1 1 5664
5665 2 12.6 7.8 3.0 1 1 5665
5666 2 12.6 7.8 3.5999999999999996 1 1 5666
5667 2 12.6 7.8 4.8 1 1 5667
5668 2 12.6 7.8 5.3999999999999995 1 1 5668
5669 2 12.6 7.8 6.0 1 1 5669
5670 2 12.6 7.8 6.6 1 1 5670
5671 2 12.6 7.8 7.199999999999999 1 1 5671
5672 2 12.6 7.8 7.8 1 1 5672
5673 2 12.6 7.8 8.4 1 1 5673
5674 2 12.6 7.8 9.6 1 1 5674
5675 2 12.6 7.8 10.2 1 1 5675
5676 2 12.6 7.8 10.799999999999999 1 1 5676
5677 2 12.6 8.4 2.4 1 1 5677
5678 2 12.6 8.4 3.0 1 1 5678
5679 2 12.6 8.4 3.5999999999999996 1 1 5679
5680 2 12.6 8.4 4.2 1 1 5680
5681 2 12.6 8.4 4.8 1 1 5681
5682 2 12.6 8.4 5.3999999999999995 1 1 5682
5683 2 12.6 8.4 6.0 1 1 5683
5684 2 12.6 8.4 6.6 1 1 5684
5685 2 12.6 8.4 7.199999999999999 1 1 5685
5686 2 12.6 8.4 7.8 1 1 5686
5687 2 12.6 8.4 8.4 1 1 5687
5688 2 12.6 8.4 9.0 1 1 5688
5689 2 12.6 8.4 9.6 1 1 5689
5690 2 12.6 8.4 10.2 1 1 5690
5691 2 12.6 8.4 10.799999999999999 1 1 5691
5692 2 12.6 9.0 3.0 1 1 5692
5693 2 12.6 9.0 4.2 1 1 5693
5694 2 12.6 9.0 4.8 1 1 5694
5695 2 12.6 9.0 5.3999999999999995 1 1 5695
5696 2 12.6 9.0 6.0 1 1 5696
5697 2 12.6 9.0 7.199999999999999 1 1 5697
5698 2 12.6 9.0 7.8 1 1 5698
5699 2 12.6 9.0 8.4 1 1 5699
5700 2 12.6 9.0 9.0 1 1 5700
5701 2 12.6 9.0 9.6 1 1 5701
5702 2 12.6 9.0 10.2 1 1 5702
5703 2 12.6 9.6 3.5999999999999996 1 1 5703
5704 2 12.6 9.6 4.8 1 1 5704
5705 2 12.6 9.6 5.3999999999999995 1 1 5705
5706 2 12.6 9.6 6.0 1 1 5706
5707 2 12.6 9.6 6.6 1 1 5707
5708 2 12.6 9.6 7.199999999999999 1 1 5708
5709 2 12.6 9.6 7.8 1 1 5709
5710 2 12.6 9.6 8.4 1 1 5710
5711 2 12.6 9.6 9.0 1 1 5711
5712 2 12.6 9.6 9.6 1 1 5712
5713 2 12.6 9.6 10.2 1 1 5713
5714 2 12.6 10.2 3.5999999999999996 1 1 5714
5715 2 12.6 10.2 4.2 1 1 5715
5716 2 12.6 10.2 4.8 1 1 5716
5717 2 12.6 10.2 5.3999999999999995 1 1 5717
5718 2 12.6 10.2 6.0 1 1 5718
5719 2 12.6 10.2 6.6 1 1 5719
5720 2 12.6 10.2 7.8 1 1 5720
5721 2 12.6 10.2 8.4 1 1 5721
5722 2 12.6 10.2 9.0 1 1 5722
5723 2 12.6 10.2 9.6 1 1 5723
5724 2 12.6 10.799999999999999 4.8 1 1 5724
5725 2 12.6 10.799999999999999 5.3999999999999995 1 1 5725
5726 2 12.6 10.799999999999999 6.0 1 1 5726
5727 2 12.6 10.799999999999999 7.199999999999999 1 1 5727
5728 2 12.6 10.799999999999999 7.8 1 1 5728
5729 2 12.6 10.799999999999999 8.4 1 1 5729
5730 2 13.2 2.4 5.3999999999999995 1 1 5730
5731 2 13.2 2.4 6.0 1 1 5731
5732 2 13.2 2.4 6.6 1 1 5732
5733 2 13.2 2.4 7.199999999999999 1 1 5733
5734 2 13.2 2.4 7.8 1 1 5734
5735 2 13.2 2.4 8.4 1 1 5735
5736 2 13.2 3.0 4.2 1 1 5736
5737 2 13.2 3.0 5.3999999999999995 1 1 5737
5738 2 13.2 3.0 6.0 1 1 5738
5739 2 13.2 3.0 6.6 1 1 5739
5740 2 13.2 3.0 7.199999999999999 1 1 5740
5741 2 13.2 3.0 7.8 1 1 5741
5742 2 13.2 3.0 8.4 1 1 5742
5743 2 13.2 3.0 9.0 1 1 5743
5744 2 13.2 3.5999999999999996 3.5999999999999996 1 1 5744
5745 2 13.2 3.5999999999999996 4.2 1 1 5745
5746 2 13.2 3.5999999999999996 4.8 1 1 5746
5747 2 13.2 3.5999999999999996 5.3999999999999995 1 1 5747
5748 2 13.2 3.5999999999999996 6.0 1 1 5748
5749 2 13.2 3.5999999999999996 7.199999999999999 1 1 5749
5750 2 13.2 3.5999999999999996 7.8 1 1 5750
5751 2 13.2 3.5999999999999996 8.4 1 1 5751
5752 2 13.2 3.5999999999999996 9.0 1 1 5752
5753 2 13.2 3.5999999999999996 9.6 1 1 5753
5754 2 13.2 3.5999999999999996 10.2 1 1 5754
5755 2 13.2 4.2 3.0 1 1 5755
5756 2 13.2 4.2 4.2 1 1 5756
5757 2 13.2 4.2 4.8 1 1 5757
5758 2 13.2 4.2 5.3999999999999995 1 1 5758
5759 2 13.2 4.2 6.0 1 1 5759
5760 2 13.2 4.2 6.6 1 1 5760
5761 2 13.2 4.2 7.199999999999999 1 1 5761
5762 2 13.2 4.2 7.8 1 1 5762
5763 2 13.2 4.2 8.4 1 1 5763
5764 2 13.2 4.2 9.0 1 1 5764
5765 2 13.2 4.2 9.6 1 1 5765
5766 2 13.2 4.8 3.0 1 1 5766
5767 2 13.2 4.8 3.5999999999999996 1 1 5767
5768 2 13.2 4.8 4.2 1 1 5768
5769 2 13.2 4.8 5.3999999999999995 1 1 5769
5770 2 13.2 4.8 6.6 1 1 5770
5771 2 13.2 4.8 7.199999999999999 1 1 5771
5772 2 13.2 4.8 8.4 1 1 5772
5773 2 13.2 4.8 9.0 1 1 5773
5774 2 13.2 4.8 10.2 1 1 5774
5775 2 13.2 4.8 10.799999999999999 1 1 5775
5776 2 13.2 5.3999999999999995 2.4 1 1 5776
5777 2 13.2 5.3999999999999995 3.0 1 1 5777
5778 2 13.2 5.3999999999999995 3.5999999999999996 1 1 5778
5779 2 13.2 5.3999999999999995 4.2 1 1 5779
5780 2 13.2 5.3999999999999995 4.8 1 1 5780
5781 2 13.2 5.3999999999999995 5.3999999999999995 1 1 5781
5782 2 13.2 5.3999999999999995 6.0 1 1 5782
5783 2 13.2 5.3999999999999995 6.6 1 1 5783
5784 2 13.2 5.3999999999999995 7.199999999999999 1 1 5784
5785 2 13.2 5.3999999999999995 7.8 1 1 5785
5786 2 13.2 5.3999999999999995 8.4 1 1 5786
5787 2 13.2 5.3999999999999995 9.0 1 1 5787
5788 2 13.2 5.3999999999999995 9.6 1 1 5788
5789 2 13.2 5.3999999999999995 10.2 1 1 5789
5790 2 13.2 6.0 2.4 1 1 5790
5791 2 13.2 6.0 3.0 1 1 5791
5792 2 13.2 6.0 3.5999999999999996 1 1 5792
5793 2 13.2 6.0 4.2 1 1 5793
5794 2 13.2 6.0 4.8 1 1 5794
5795 2 13.2 6.0 5.3999999999999995 1 1 5795
5796 2 13.2 6.0 6.0 1 1 5796
5797 2 13.2 6.0 6.6 1 1 5797
5798 2 13.2 6.0 7.199999999999999 1 1 5798
5799 2 13.2 6.0 7.8 1 1 5799
5800 2 13.2 6.0 9.0 1 1 5800
5801 2 13.2 6.0 9.6 1 1 5801
5802 2 13.2 6.0 10.2 1 1 5802
5803 2 13.2 6.0 10.799999999999999 1 1 5803
5804 2 13.2 6.6 2.4 1 1 5804
5805 2 13.2 6.6 3.0 1 1 5805
5806 2 13.2 6.6 3.5999999999999996 1 1 5806
5807 2 13.2 6.6 4.2 1 1 5807
5808 2 13.2 6.6 4.8 1 1 5808
5809 2 13.2 6.6 5.3999999999999995 1 1 5809
5810 2 13.2 6.6 6.0 1 1 5810
5811 2 13.2 6.6 6.6 1 1 5811
5812 2 13.2 6.6 7.199999999999999 1 1 5812
5813 2 13.2 6.6 7.8 1 1 5813
5814 2 13.2 6.6 8.4 1 1 5814
5815 2 13.2 6.6 9.0 1 1 5815
5816 2 13.2 6.6 9.6 1 1 5816
5817 2 13.2 6.6 10.799999999999999 1 1 5817
5818 2 13.2 7.199999999999999 3.0 1 1 5818
5819 2 13.2 7.199999999999999 3.5999999999999996 1 1 5819
5820 2 13.2 7.199999999999999 4.8 1 1 5820
5821 2 13.2 7.199999999999999 5.3999999999999995 1 1 5821
5822 2 13.2 7.199999999999999 6.0 1 1 5822
5823 2 13.2 7.199999999999999 6.6 1 1 5823
5824 2 13.2 7.199999999999999 7.199999999999999 1 1 5824
5825 2 13.2 7.199999999999999 7.8 1 1 5825
5826 2 13.2 7.199999999999999 9.0 1 1 5826
5827 2 13.2 7.199999999999999 9.6 1 1 5827
5828 2 13.2 7.199999999999999 10.2 1 1 5828
5829 2 13.2 7.199999999999999 10.799999999999999 1 1 5829
5830 2 13.2 7.8 2.4 1 1 5830
5831 2 13.2 7.8 3.0 1 1 5831
5832 2 13.2 7.8 3.5999999999999996 1 1 5832
5833 2 13.2 7.8 4.2 1 1 5833
5834 2 13.2 7.8 4.8 1 1 5834
5835 2 13.2 7.8 5.3999999999999995 1 1 5835
5836 2 13.2 7.8 6.0 1 1 5836
5837 2 13.2 7.8 6.6 1 1 5837
5838 2 13.2 7.8 7.199999999999999 1 1 5838
5839 2 13.2 7.8 7.8 1 1 5839
5840 2 13.2 7.8 8.4 1 1 5840
5841 2 13.2 7.8 9.0 1 1 5841
5842 2 13.2 7.8 9.6 1 1 5842
5843 2 13.2 7.8 10.799999999999999 1 1 5843
5844 2 13.2 8.4 2.4 1 1 5844
5845 2 13.2 8.4 3.0 1 1 5845
5846 2 13.2 8.4 3.5999999999999996 1 1 5846
5847 2 13.2 8.4 4.2 1 1 5847
5848 2 13.2 8.4 4.8 1 1 5848
5849 2 13.2 8.4 5.3999999999999995 1 1 5849
5850 2 13.2 8.4 6.0 1 1 5850
5851 2 13.2 8.4 6.6 1 1 5851
5852 2 13.2 8.4 7.199999999999999 1 1 5852
5853 2 13.2 8.4 7.8 1 1 5853
5854 2 13.2 8.4 9.0 1 1 5854
5855 2 13.2 8.4 10.2 1 1 5855
5856 2 13.2 8.4 10.799999999999999 1 1 5856
5857 2 13.2 9.0 3.0 1 1 5857
5858 2 13.2 9.0 5.3999999999999995 1 1 5858
5859 2 13.2 9.0 6.6 1 1 5859
5860 2 13.2 9.0 7.199999999999999 1 1 5860
5861 2 13.2 9.0 7.8 1 1 5861
5862 2 13.2 9.0 8.4 1 1 5862
5863 2 13.2 9.0 9.0 1 1 5863
5864 2 13.2 9.0 9.6 1 1 5864
5865 2 13.2 9.0 10.2 1 1 5865
5866 2 13.2 9.6 3.5999999999999996 1 1 5866
5867 2 13.2 9.6 4.2 1 1 5867
5868 2 13.2 9.6 4.8 1 1 5868
5869 2 13.2 9.6 5.3999999999999995 1 1 5869
5870 2 13.2 9.6 6.0 1 1 5870
5871 2 13.2 9.6 6.6 1 1 5871
5872 2 13.2 9.6 7.199999999999999 1 1 5872
5873 2 13.2 9.6 7.8 1 1 5873
5874 2 13.2 9.6 8.4 1 1 5874
5875 2 13.2 9.6 9.0 1 1 5875
5876 2 13.2 9.6 9.6 1 1 5876
5877 2 13.2 9.6 10.2 1 1 5877
5878 2 13.2 10.2 3.5999999999999996 1 1 5878
5879 2 13.2 10.2 4.2 1 1 5879
5880 2 13.2 10.2 4.8 1 1 5880
5881 2 13.2 10.2 5.3999999999999995 1 1 5881
5882 2 13.2 10.2 6.0 1 1 5882
5883 2 13.2 10.2 6.6 1 1 5883
5884 2 13.2 10.2 7.199999999999999 1 1 5884
5885 2 13.2 10.2 7.8 1 1 5885
5886 2 13.2 10.2 8.4 1 1 5886
5887 2 13.2 10.2 9.0 1 1 5887
5888 2 13.2 10.2 9.6 1 1 5888
5889 2 13.2 10.799999999999999 4.8 1 1 5889
5890 2 13.2 10.799999999999999 5.3999999999999995 1 1 5890
5891 2 13.2 10.799999999999999 6.0 1 1 5891
5892 2 13.2 10.799999999999999 6.6 1 1 5892
5893 2 13.2 10.799999999999999 7.199999999999999 1 1 5893
5894 2 13.2 10.799999999999999 7.8 1 1 5894
5895 2 13.2 10.799999999999999 8.4 1 1 5895
5896 2 13.799999999999999 2.4 5.3999999999999995 1 1 5896
5897 2 13.799999999999999 2.4 6.0 1 1 5897
5898 2 13.799999999999999 2.4 7.199999999999999 1 1 5898
5899 2 13.799999999999999 2.4 7.8 1 1 5899
5900 2 13.799999999999999 2.4 8.4 1 1 5900
5901 2 13.799999999999999 3.0 4.2 1 1 5901
5902 2 13.799999999999999 3.0 4.8 1 1 5902
5903 2 13.799999999999999 3.0 5.3999999999999995 1 1 5903
5904 2 13.799999999999999 3.0 6.0 1 1 5904
5905 2 13.799999999999999 3.0 6.6 1 1 5905
5906 2 13.799999999999999 3.0 7.199999999999999 1 1 5906
5907 2 13.799999999999999 3.0 7.8 1 1 5907
5908 2 13.799999999999999 3.0 9.0 1 1 5908
5909 2 13.799999999999999 3.5999999999999996 4.2 1 1 5909
5910 2 13.799999999999999 3.5999999999999996 4.8 1 1 5910
5911 2 13.799999999999999 3.5999999999999996 5.3999999999999995 1 1 5911
5912 2 13.799999999999999 3.5999999999999996 6.0 1 1 5912
5913 2 13.799999999999999 3.5999999999999996 6.6 1 1 5913
5914 2 13.799999999999999 3.5999999999999996 7.199999999999999 1 1 5914
5915 2 13.799999999999999 3.5999999999999996 7.8 1 1 5915
5916 2 13.799999999999999 3.5999999999999996 8.4 1 1 5916
5917 2 13.799999999999999 3.5999999999999996 9.0 1 1 5917
5918 2 13.799999999999999 3.5999999999999996 9.6 1 1 5918
5919 2 13.799999999999999 3.5999999999999996 10.2 1 1 5919
5920 2 13.799999999999999 4.2 3.0 1 1 5920
5921 2 13.799999999999999 4.2 3.5999999999999996 1 1 5921
5922 2 13.799999999999999 4.2 4.2 1 1 5922
5923 2 13.799999999999999 4.2 4.8 1 1 5923
5924 2 13.799999999999999 4.2 5.3999999999999995 1 1 5924
5925 2 13.799999999999999 4.2 6.0 1 1 5925
5926 2 13.799999999999999 4.2 6.6 1 1 5926
5927 2 13.799999999999999 4.2 7.199999999999999 1 1 5927
5928 2 13.799999999999999 4.2 7.8 1 1 5928
5929 2 13.799999999999999 4.2 8.4 1 1 5929
5930 2 13.799999999999999 4.2 9.0 1 1 5930
5931 2 13.799999999999999 4.2 9.6 1 1 5931
5932 2 13.799999999999999 4.2 10.2 1 1 5932
5933 2 13.799999999999999 4.8 3.0 1 1 5933
5934 2 13.799999999999999 4.8 3.5999999999999996 1 1 5934
5935 2 13.799999999999999 4.8 4.2 1 1 5935
5936 2 13.799999999999999 4.8 5.3999999999999995 1 1 5936
5937 2 13.799999999999999 4.8 6.0 1 1 5937
5938 2 13.799999999999999 4.8 6.6 1 1 5938
5939 2 13.799999999999999 4.8 7.199999999999999 1 1 5939
5940 2 13.799999999999999 4.8 7.8 1 1 5940
5941 2 13.799999999999999 4.8 8.4 1 1 5941
5942 2 13.799999999999999 4.8 9.0 1 1 5942
5943 2 13.799999999999999 4.8 9.6 1 1 5943
5944 2 13.799999999999999 4.8 10.2 1 1 5944
5945 2 13.799999999999999 4.8 10.799999999999999 1 1 5945
5946 2 13.799999999999999 5.3999999999999995 3.0 1 1 5946
5947 2 13.799999999999999 5.3999999999999995 3.5999999999999996 1 1 5947
5948 2 13.799999999999999 5.3999999999999995 4.2 1 1 5948
5949 2 13.799999999999999 5.3999999999999995 4.8 1 1 5949
5950 2 13.799999999999999 5.3999999999999995 5.3999999999999995 1 1 5950
5951 2 13.799999999999999 5.3999999999999995 6.0 1 1 5951
5952 2 13.799999999999999 5.3999999999999995 6.6 1 1 5952
5953 2 13.799999999999999 5.3999999999999995 7.199999999999999 1 1 5953
5954 2 13.799999999999999 5.3999999999999995 7.8 1 1 5954
5955 2 13.799999999999999 5.3999999999999995 9.0 1 1 5955
5956 2 13.799999999999999 5.3999999999999995 9.6 1 1 5956
5957 2 13.799999999999999 5.3999999999999995 10.2 1 1 5957
5958 2 13.799999999999999 5.3999999999999995 10.799999999999999 1 1 5958
5959 2 13.799999999999999 6.0 2.4 1 1 5959
5960 2 13.799999999999999 6.0 3.0 1 1 5960
5961 2 13.799999999999999 6.0 3.5999999999999996 1 1 5961
5962 2 13.799999999999999 6.0 4.8 1 1 5962
5963 2 13.799999999999999 6.0 5.3999999999999995 1 1 5963
5964 2 13.799999999999999 6.0 6.0 1 1 5964
5965 2 13.799999999999999 6.0 6.6 1 1 5965
5966 2 13.799999999999999 6.0 7.199999999999999 1 1 5966
5967 2 13.799999999999999 6.0 8.4 1 1 5967
5968 2 13.799999999999999 6.0 9.0 1 1 5968
5969 2 13.799999999999999 6.0 9.6 1 1 5969
5970 2 13.799999999999999 6.0 10.2 1 1 5970
5971 2 13.799999999999999 6.0 10.799999999999999 1 1 5971
5972 2 13.799999999999999 6.6 2.4 1 1 5972
5973 2 13.799999999999999 6.6 3.0 1 1 5973
5974 2 13.799999999999999 6.6 3.5999999999999996 1 1 5974
5975 2 13.799999999999999 6.6 4.2 1 1 5975
5976 2 13.799999999999999 6.6 4.8 1 1 5976
5977 2 13.799999999999999 6.6 5.3999999999999995 1 1 5977
5978 2 13.799999999999999 6.6 6.0 1 1 5978
5979 2 13.799999999999999 6.6 6.6 1 1 5979
5980 2 13.799999999999999 6.6 7.199999999999999 1 1 5980
5981 2 13.799999999999999 6.6 7.8 1 1 5981
5982 2 13.799999999999999 6.6 8.4 1 1 5982
5983 2 13.799999999999999 6.6 9.0 1 1 5983
5984 2 13.799999999999999 6.6 10.2 1 1 5984
5985 2 13.799999999999999 6.6 10.799999999999999 1 1 5985
5986 2 13.799999999999999 7.199999999999999 2.4 1 1 5986
5987 2 13.799999999999999 7.199999999999999 3.0 1 1 5987
5988 2 13.799999999999999 7.199999999999999 4.2 1 1 5988
5989 2 13.799999999999999 7.199999999999999 6.0 1 1 5989
5990 2 13.799999999999999 7.199999999999999 6.6 1 1 5990
5991 2 13.799999999999999 7.199999999999999 7.199999999999999 1 1 5991
5992 2 13.799999999999999 7.199999999999999 7.8 1 1 5992
5993 2 13.799999999999999 7.199999999999999 9.6 1 1 5993
5994 2 13.799999999999999 7.199999999999999 10.2 1 1 5994
5995 2 13.799999999999999 7.199999999999999 10.799999999999999 1 1 5995
5996 2 13.799999999999999 7.8 2.4 1 1 5996
5997 2 13.799999999999999 7.8 3.0 1 1 5997
5998 2 13.799999999999999 7.8 3.5999999999999996 1 1 5998
5999 2 13.799999999999999 7.8 4.2 1 1 5999
6000 2 13.799999999999999 7.8 4.8 1 1 6000
6001 2 13.799999999999999 7.8 5.3999999999999995 1 1 6001
6002 2 13.799999999999999 7.8 6.6 1 1 6002
6003 2 13.799999999999999 7.8 7.199999999999999 1 1 6003
6004 2 13.799999999999999 7.8 7.8 1 1 6004
6005 2 13.799999999999999 7.8 8.4 1 1 6005
6006 2 13.799999999999999 7.8 9.0 1 1 6006
6007 2 13.799999999999999 7.8 9.6 1 1 6007
6008 2 13.799999999999999 7.8 10.2 1 1 6008
6009 2 13.799999999999999 7.8 10.799999999999999 1 1 6009
6010 2 13.799999999999999 8.4 2.4 1 1 6010
6011 2 13.799999999999999 8.4 3.0 1 1 6011
6012 2 13.799999999999999 8.4 3.5999999999999996 1 1 6012
6013 2 13.799999999999999 8.4 4.2 1 1 6013
6014 2 13.799999999999999 8.4 4.8 1 1 6014
6015 2 13.799999999999999 8.4 5.3999999999999995 1 1 6015
6016 2 13.799999999999999 8.4 6.6 1 1 6016
6017 2 13.799999999999999 8.4 7.199999999999999 1 1 6017
6018 2 13.799999999999999 8.4 7.8 1 1 6018
6019 2 13.799999999999999 8.4 8.4 1 1 6019
6020 2 13.799999999999999 8.4 9.0 1 1 6020
6021 2 13.799999999999999 8.4 9.6 1 1 6021
6022 2 13.799999999999999 8.4 10.2 1 1 6022
6023 2 13.799999999999999 8.4 10.799999999999999 1 1 6023
6024 2 13.799999999999999 9.0 3.0 1 1 6024
6025 2 13.799999999999999 9.0 3.5999999999999996 1 1 6025
6026 2 13.799999999999999 9.0 4.2 1 1 6026
6027 2 13.799999999999999 9.0 4.8 1 1 6027
6028 2 13.799999999999999 9.0 5.3999999999999995 1 1 6028
6029 2 13.799999999999999 9.0 6.0 1 1 6029
6030 2 13.799999999999999 9.0 6.6 1 1 6030
6031 2 13.799999999999999 9.0 7.199999999999999 1 1 6031
6032 2 13.799999999999999 9.0 8.4 1 1 6032
6033 2 13.799999999999999 9.0 9.0 1 1 6033
6034 2 13.799999999999999 9.0 9.6 1 1 6034
6035 2 13.799999999999999 9.0 10.2 1 1 6035
6036 2 13.799999999999999 9.6 3.5999999999999996 1 1 6036
6037 2 13.799999999999999 9.6 4.8 1 1 6037
6038 2 13.799999999999999 9.6 5.3999999999999995 1 1 6038
6039 2 13.799999999999999 9.6 6.0 1 1 6039
6040 2 13.799999999999999 9.6 6.6 1 1 6040
6041 2 13.799999999999999 9.6 7.199999999999999 1 1 6041
6042 2 13.799999999999999 9.6 7.8 1 1 6042
6043 2 13.799999999999999 9.6 8.4 1 1 6043
6044 2 13.799999999999999 9.6 9.0 1 1 6044
6045 2 13.799999999999999 9.6 9.6 1 1 6045
6046 2 13.799999999999999 9.6 10.2 1 1 6046
6047 2 13.799999999999999 10.2 4.2 1 1 6047
6048 2 13.799999999999999 10.2 4.8 1 1 6048
6049 2 13.799999999999999 10.2 5.3999999999999995 1 1 6049
6050 2 13.799999999999999 10.2 6.0 1 1 6050
6051 2 13.799999999999999 10.2 6.6 1 1 6051
6052 2 13.799999999999999 10.2 7.199999999999999 1 1 6052
6053 2 13.799999999999999 10.2 7.8 1 1 6053
6054 2 13.799999999999999 10.2 8.4 1 1 6054
6055 2 13.799999999999999 10.2 9.0 1 1 6055
6056 2 13.799999999999999 10.2 9.6 1 1 6056
6057 2 13.799999999999999 10.799999999999999 4.8 1 1 6057
6058 2 13.799999999999999 10.799999999999999 6.0 1 1 6058
6059 2 13.799999999999999 10.799999999999999 6.6 1 1 6059
6060 2 13.799999999999999 10.799999999999999 7.8 1 1 6060
6061 2 13.799999999999999 10.799999999999999 8.4 1 1 6061
6062 2 14.399999999999999 2.4 5.3999999999999995 1 1 6062
6063 2 14.399999999999999 2.4 6.0 1 1 6063
6064 2 14.399999999999999 2.4 6.6 1 1 6064
6065 2 14.399999999999999 2.4 7.199999999999999 1 1 6065
6066 2 14.399999999999999 2.4 7.8 1 1 6066
6067 2 14.399999999999999 3.0 4.2 1 1 6067
6068 2 14.399999999999999 3.0 5.3999999999999995 1 1 6068
6069 2 14.399999999999999 3.0 6.6 1 1 6069
6070 2 14.399999999999999 3.0 7.199999999999999 1 1 6070
6071 2 14.399999999999999 3.0 7.8 1 1 6071
6072 2 14.399999999999999 3.0 8.4 1 1 6072
6073 2 14.399999999999999 3.0 9.0 1 1 6073
6074 2 14.399999999999999 3.5999999999999996 3.5999999999999996 1 1 6074
6075 2 14.399999999999999 3.5999999999999996 4.2 1 1 6075
6076 2 14.399999999999999 3.5999999999999996 4.8 1 1 6076
6077 2 14.399999999999999 3.5999999999999996 6.6 1 1 6077
6078 2 14.399999999999999 3.5999999999999996 7.199999999999999 1 1 6078
6079 2 14.399999999999999 3.5999999999999996 7.8 1 1 6079
6080 2 14.399999999999999 3.5999999999999996 8.4 1 1 6080
6081 2 14.399999999999999 3.5999999999999996 9.0 1 1 6081
6082 2 14.399999999999999 3.5999999999999996 9.6 1 1 6082
6083 2 14.399999999999999 3.5999999999999996 10.2 1 1 6083
6084 2 14.399999999999999 4.2 3.0 1 1 6084
6085 2 14.399999999999999 4.2 3.5999999999999996 1 1 6085
6086 2 14.399999999999999 4.2 4.8 1 1 6086
6087 2 14.399999999999999 4.2 5.3999999999999995 1 1 6087
6088 2 14.399999999999999 4.2 6.0 1 1 6088
6089 2 14.399999999999999 4.2 6.6 1 1 6089
6090 2 14.399999999999999 4.2 7.199999999999999 1 1 6090
6091 2 14.399999999999999 4.2 8.4 1 1 6091
6092 2 14.399999999999999 4.2 9.0 1 1 6092
6093 2 14.399999999999999 4.2 10.2 1 1 6093
6094 2 14.399999999999999 4.8 3.0 1 1 6094
6095 2 14.399999999999999 4.8 3.5999999999999996 1 1 6095
6096 2 14.399999999999999 4.8 4.2 1 1 6096
6097 2 14.399999999999999 4.8 4.8 1 1 6097
6098 2 14.399999999999999 4.8 6.6 1 1 6098
6099 2 14.399999999999999 4.8 7.199999999999999 1 1 6099
6100 2 14.399999999999999 4.8 7.8 1 1 6100
6101 2 14.399999999999999 4.8 8.4 1 1 6101
6102 2 14.399999999999999 4.8 9.0 1 1 6102
6103 2 14.399999999999999 4.8 9.6 1 1 6103
6104 2 14.399999999999999 4.8 10.2 1 1 6104
6105 2 14.399999999999999 4.8 10.799999999999999 1 1 6105
6106 2 14.399999999999999 5.3999999999999995 2.4 1 1 6106
6107 2 14.399999999999999 5.3999999999999995 3.0 1 1 6107
6108 2 14.399999999999999 5.3999999999999995 3.5999999999999996 1 1 6108
6109 2 14.399999999999999 5.3999999999999995 4.2 1 1 6109
6110 2 14.399999999999999 5.3999999999999995 4.8 1 1 6110
6111 2 14.399999999999999 5.3999999999999995 5.3999999999999995 1 1 6111
6112 2 14.399999999999999 5.3999999999999995 6.0 1 1 6112
6113 2 14.399999999999999 5.3999999999999995 6.6 1 1 6113
6114 2 14.399999999999999 5.3999999999999995 7.199999999999999 1 1 6114
6115 2 14.399999999999999 5.3999999999999995 7.8 1 1 6115
6116 2 14.399999999999999 5.3999999999999995 8.4 1 1 6116
6117 2 14.399999999999999 5.3999999999999995 9.0 1 1 6117
6118 2 14.399999999999999 5.3999999999999995 10.2 1 1 6118
6119 2 14.399999999999999 5.3999999999999995 10.799999999999999 1 1 6119
6120 2 14.399999999999999 6.0 2.4 1 1 6120
6121 2 14.399999999999999 6.0 3.5999999999999996 1 1 6121
6122 2 14.399999999999999 6.0 4.2 1 1 6122
6123 2 14.399999999999999 6.0 4.8 1 1 6123
6124 2 14.399999999999999 6.0 5.3999999999999995 1 1 6124
6125 2 14.399999999999999 6.0 6.0 1 1 6125
6126 2 14.399999999999999 6.0 6.6 1 1 6126
6127 2 14.399999999999999 6.0 7.199999999999999 1 1 6127
6128 2 14.399999999999999 6.0 7.8 1 1 6128
6129 2 14.399999999999999 6.0 8.4 1 1 6129
6130 2 14.399999999999999 6.0 9.0 1 1 6130
6131 2 14.399999999999999 6.0 10.2 1 1 6131
6132 2 14.399999999999999 6.0 10.799999999999999 1 1 6132
6133 2 14.399999999999999 6.6 2.4 1 1 6133
6134 2 14.399999999999999 6.6 3.0 1 1 6134
6135 2 14.399999999999999 6.6 3.5999999999999996 1 1 6135
6136 2 14.399999999999999 6.6 4.2 1 1 6136
6137 2 14.399999999999999 6.6 4.8 1 1 6137
6138 2 14.399999999999999 6.6 5.3999999999999995 1 1 6138
6139 2 14.399999999999999 6.6 6.0 1 1 6139
6140 2 14.399999999999999 6.6 6.6 1 1 6140
6141 2 14.399999999999999 6.6 7.199999999999999 1 1 6141
6142 2 14.399999999999999 6.6 7.8 1 1 6142
6143 2 14.399999999999999 6.6 8.4 1 1 6143
6144 2 14.399999999999999 6.6 9.0 1 1 6144
6145 2 14.399999999999999 6.6 9.6 1 1 6145
6146 2 14.399999999999999 6.6 10.2 1 1 6146
6147 2 14.399999999999999 6.6 10.799999999999999 1 1 6147
6148 2 14.399999999999999 7.199999999999999 2.4 1 1 6148
6149 2 14.399999999999999 7.199999999999999 3.0 1 1 6149
6150 2 14.399999999999999 7.199999999999999 3.5999999999999996 1 1 6150
6151 2 14.399999999999999 7.199999999999999 4.2 1 1 6151
6152 2 14.399999999999999 7.199999999999999 4.8 1 1 6152
6153 2 14.399999999999999 7.199999999999999 5.3999999999999995 1 1 6153
6154 2 14.399999999999999 7.199999999999999 6.0 1 1 6154
6155 2 14.399999999999999 7.199999999999999 6.6 1 1 6155
6156 2 14.399999999999999 7.199999999999999 7.8 1 1 6156
6157 2 14.399999999999999 7.199999999999999 8.4 1 1 6157
6158 2 14.399999999999999 7.199999999999999 9.0 1 1 6158
6159 2 14.399999999999999 7.199999999999999 9.6 1 1 6159
6160 2 14.399999999999999 7.199999999999999 10.2 1 1 6160
6161 2 14.399999999999999 7.199999999999999 10.799999999999999 1 1 6161
6162 2 14.399999999999999 7.8 2.4 1 1 6162
6163 2 14.399999999999999 7.8 3.0 1 1 6163
6164 2 14.399999999999999 7.8 3.5999999999999996 1 1 6164
6165 2 14.399999999999999 7.8 4.2 1 1 6165
6166 2 14.399999999999999 7.8 4.8 1 1 6166
6167 2 14.399999999999999 7.8 5.3999999999999995 1 1 6167
6168 2 14.399999999999999 7.8 6.0 1 1 6168
6169 2 14.399999999999999 7.8 6.6 1 1 6169
6170 2 14.399999999999999 7.8 7.199999999999999 1 1 6170
6171 2 14.399999999999999 7.8 7.8 1 1 6171
6172 2 14.399999999999999 7.8 8.4 1 1 6172
6173 2 14.399999999999999 7.8 9.6 1 1 6173
6174 2 14.399999999999999 7.8 10.799999999999999 1 1 6174
6175 2 14.399999999999999 8.4 2.4 1 1 6175
6176 2 14.399999999999999 8.4 3.0 1 1 6176
6177 2 14.399999999999999 8.4 3.5999999999999996 1 1 6177
6178 2 14.399999999999999 8.4 4.2 1 1 6178
6179 2 14.399999999999999 8.4 4.8 1 1 6179
6180 2 14.399999999999999 8.4 5.3999999999999995 1 1 6180
6181 2 14.399999999999999 8.4 6.0 1 1 6181
6182 2 14.399999999999999 8.4 6.6 1 1 6182
6183 2 14.399999999999999 8.4 7.8 1 1 6183
6184 2 14.399999999999999 8.4 8.4 1 1 6184
6185 2 14.399999999999999 8.4 9.6 1 1 6185
6186 2 14.399999999999999 8.4 10.2 1 1 6186
6187 2 14.399999999999999 8.4 10.799999999999999 1 1 6187
6188 2 14.399999999999999 9.0 3.0 1 1 6188
6189 2 14.399999999999999 9.0 3.5999999999999996 1 1 6189
6190 2 14.399999999999999 9.0 4.2 1 1 6190
6191 2 14.399999999999999 9.0 4.8 1 1 6191
6192 2 14.399999999999999 9.0 5.3999999999999995 1 1 6192
6193 2 14.399999999999999 9.0 6.0 1 1 6193
6194 2 14.399999999999999 9.0 6.6 1 1 6194
6195 2 14.399999999999999 9.0 7.199999999999999 1 1 6195
6196 2 14.399999999999999 9.0 7.8 1 1 6196
6197 2 14.399999999999999 9.0 9.0 1 1 6197
6198 2 14.399999999999999 9.0 9.6 1 1 6198
6199 2 14.399999999999999 9.0 10.2 1 1 6199
6200 2 14.399999999999999 9.6 3.5999999999999996 1 1 6200
6201 2 14.399999999999999 9.6 4.8 1 1 6201
6202 2 14.399999999999999 9.6 5.3999999999999995 1 1 6202
6203 2 14.399999999999999 9.6 6.0 1 1 6203
6204 2 14.399999999999999 9.6 6.6 1 1 6204
6205 2 14.399999999999999 9.6 7.199999999999999 1 1 6205
6206 2 14.399999999999999 9.6 7.8 1 1 6206
6207 2 14.399999999999999 9.6 8.4 1 1 6207
6208 2 14.399999999999999 9.6 9.0 1 1 6208
6209 2 14.399999999999999 9.6 9.6 1 1 6209
6210 2 14.399999999999999 9.6 10.2 1 1 6210
6211 2 14.399999999999999 10.2 3.5999999999999996 1 1 6211
6212 2 14.399999999999999 10.2 4.2 1 1 6212
6213 2 14.399999999999999 10.2 4.8 1 1 6213
6214 2 14.399999999999999 10.2 5.3999999999999995 1 1 6214
6215 2 14.399999999999999 10.2 6.6 1 1 6215
6216 2 14.399999999999999 10.2 7.199999999999999 1 1 6216
6217 2 14.399999999999999 10.2 7.8 1 1 6217
6218 2 14.399999999999999 10.2 8.4 1 1 6218
6219 2 14.399999999999999 10.2 9.0 1 1 6219
6220 2 14.399999999999999 10.799999999999999 4.8 1 1 6220
6221 2 14.399999999999999 10.799999999999999 5.3999999999999995 1 1 6221
6222 2 14.399999999999999 10.799999999999999 6.0 1 1 6222
6223 2 14.399999999999999 10.799999999999999 7.199999999999999 1 1 6223
6224 2 14.399999999999999 10.799999999999999 7.8 1 1 6224
6225 2 14.399999999999999 10.799999999999999 8.4 1 1 6225
6226 2 15.0 2.4 5.3999999999999995 1 1 6226
6227 2 15.0 2.4 6.0 1 1 6227
6228 2 15.0 2.4 6.6 1 1 6228
6229 2 15.0 2.4 7.199999999999999 1 1 6229
6230 2 15.0 2.4 7.8 1 1 6230
6231 2 15.0 2.4 8.4 1 1 6231
6232 2 15.0 3.0 4.2 1 1 6232
6233 2 15.0 3.0 4.8 1 1 6233
6234 2 15.0 3.0 5.3999999999999995 1 1 6234
6235 2 15.0 3.0 6.0 1 1 6235
6236 2 15.0 3.0 6.6 1 1 6236
6237 2 15.0 3.0 7.199999999999999 1 1 6237
6238 2 15.0 3.0 7.8 1 1 6238
6239 2 15.0 3.0 8.4 1 1 6239
6240 2 15.0 3.0 9.0 1 1 6240
6241 2 15.0 3.5999999999999996 3.5999999999999996 1 1 6241
6242 2 15.0 3.5999999999999996 4.2 1 1 6242
6243 2 15.0 3.5999999999999996 4.8 1 1 6243
6244 2 15.0 3.5999999999999996 5.3999999999999995 1 1 6244
6245 2 15.0 3.5999999999999996 6.0 1 1 6245
6246 2 15.0 3.5999999999999996 6.6 1 1 6246
6247 2 15.0 3.5999999999999996 7.8 1 1 6247
6248 2 15.0 3.5999999999999996 8.4 1 1 6248
6249 2 15.0 3.5999999999999996 9.6 1 1 6249
6250 2 15.0 3.5999999999999996 10.2 1 1 6250
6251 2 15.0 4.2 3.0 1 1 6251
6252 2 15.0 4.2 3.5999999999999996 1 1 6252
6253 2 15.0 4.2 4.2 1 1 6253
6254 2 15.0 4.2 4.8 1 1 6254
6255 2 15.0 4.2 5.3999999999999995 1 1 6255
6256 2 15.0 4.2 6.0 1 1 6256
6257 2 15.0 4.2 6.6 1 1 6257
6258 2 15.0 4.2 7.199999999999999 1 1 6258
6259 2 15.0 4.2 7.8 1 1 6259
6260 2 15.0 4.2 8.4 1 1 6260
6261 2 15.0 4.2 9.6 1 1 6261
6262 2 15.0 4.8 3.0 1 1 6262
6263 2 15.0 4.8 3.5999999999999996 1 1 6263
6264 2 15.0 4.8 4.2 1 1 6264
6265 2 15.0 4.8 4.8 1 1 6265
6266 2 15.0 4.8 6.0 1 1 6266
6267 2 15.0 4.8 6.6 1 1 6267
6268 2 15.0 4.8 7.199999999999999 1 1 6268
6269 2 15.0 4.8 7.8 1 1 6269
6270 2 15.0 4.8 8.4 1 1 6270
6271 2 15.0 4.8 9.0 1 1 6271
6272 2 15.0 4.8 9.6 1 1 6272
6273 2 15.0 4.8 10.2 1 1 6273
6274 2 15.0 5.3999999999999995 3.5999999999999996 1 1 6274
6275 2 15.0 5.3999999999999995 4.2 1 1 6275
6276 2 15.0 5.3999999999999995 4.8 1 1 6276
6277 2 15.0 5.3999999999999995 5.3999999999999995 1 1 6277
6278 2 15.0 5.3999999999999995 6.0 1 1 6278
6279 2 15.0 5.3999999999999995 6.6 1 1 6279
6280 2 15.0 5.3999999999999995 7.199999999999999 1 1 6280
6281 2 15.0 5.3999999999999995 7.8 1 1 6281
6282 2 15.0 5.3999999999999995 8.4 1 1 6282
6283 2 15.0 5.3999999999999995 9.0 1 1 6283
6284 2 15.0 5.3999999999999995 9.6 1 1 6284
6285 2 15.0 5.3999999999999995 10.2 1 1 6285
6286 2 15.0 5.3999999999999995 10.799999999999999 1 1 6286
6287 2 15.0 6.0 2.4 1 1 6287
6288 2 15.0 6.0 3.0 1 1 6288
6289 2 15.0 6.0 3.5999999999999996 1 1 6289
6290 2 15.0 6.0 4.2 1 1 6290
6291 2 15.0 6.0 5.3999999999999995 1 1 6291
6292 2 15.0 6.0 6.0 1 1 6292
6293 2 15.0 6.0 6.6 1 1 6293
6294 2 15.0 6.0 7.199999999999999 1 1 6294
6295 2 15.0 6.0 7.8 1 1 6295
6296 2 15.0 6.0 9.0 1 1 6296
6297 2 15.0 6.0 9.6 1 1 6297
6298 2 15.0 6.0 10.2 1 1 6298
6299 2 15.0 6.0 10.799999999999999 1 1 6299
6300 2 15.0 6.6 2.4 1 1 6300
6301 2 15.0 6.6 3.0 1 1 6301
6302 2 15.0 6.6 3.5999999999999996 1 1 6302
6303 2 15.0 6.6 4.2 1 1 6303
6304 2 15.0 6.6 5.3999999999999995 1 1 6304
6305 2 15.0 6.6 6.6 1 1 6305
6306 2 15.0 6.6 7.199999999999999 1 1 6306
6307 2 15.0 6.6 7.8 1 1 6307
6308 2 15.0 6.6 8.4 1 1 6308
6309 2 15.0 6.6 9.0 1 1 6309
6310 2 15.0 6.6 10.799999999999999 1 1 6310
6311 2 15.0 7.199999999999999 2.4 1 1 6311
6312 2 15.0 7.199999999999999 3.0 1 1 6312
6313 2 15.0 7.199999999999999 3.5999999999999996 1 1 6313
6314 2 15.0 7.199999999999999 4.2 1 1 6314
6315 2 15.0 7.199999999999999 4.8 1 1 6315
6316 2 15.0 7.199999999999999 5.3999999999999995 1 1 6316
6317 2 15.0 7.199999999999999 6.0 1 1 6317
6318 2 15.0 7.199999999999999 6.6 1 1 6318
6319 2 15.0 7.199999999999999 7.199999999999999 1 1 6319
6320 2 15.0 7.199999999999999 7.8 1 1 6320
6321 2 15.0 7.199999999999999 8.4 1 1 6321
6322 2 15.0 7.199999999999999 9.0 1 1 6322
6323 2 15.0 7.199999999999999 9.6 1 1 6323
6324 2 15.0 7.199999999999999 10.799999999999999 1 1 6324
6325 2 15.0 7.8 2.4 1 1 6325
6326 2 15.0 7.8 3.0 1 1 6326
6327 2 15.0 7.8 3.5999999999999996 1 1 6327
6328 2 15.0 7.8 4.2 1 1 6328
6329 2 15.0 7.8 6.0 1 1 6329
6330 2 15.0 7.8 6.6 1 1 6330
6331 2 15.0 7.8 7.199999999999999 1 1 6331
6332 2 15.0 7.8 7.8 1 1 6332
6333 2 15.0 7.8 8.4 1 1 6333
6334 2 15.0 7.8 9.0 1 1 6334
6335 2 15.0 7.8 9.6 1 1 6335
6336 2 15.0 7.8 10.2 1 1 6336
6337 2 15.0 7.8 10.799999999999999 1 1 6337
6338 2 15.0 8.4 2.4 1 1 6338
6339 2 15.0 8.4 3.0 1 1 6339
6340 2 15.0 8.4 3.5999999999999996 1 1 6340
6341 2 15.0 8.4 4.2 1 1 6341
6342 2 15.0 8.4 4.8 1 1 6342
6343 2 15.0 8.4 5.3999999999999995 1 1 6343
6344 2 15.0 8.4 6.0 1 1 6344
6345 2 15.0 8.4 6.6 1 1 6345
6346 2 15.0 8.4 7.199999999999999 1 1 6346
6347 2 15.0 8.4 7.8 1 1 6347
6348 2 15.0 8.4 8.4 1 1 6348
6349 2 15.0 8.4 9.6 1 1 6349
6350 2 15.0 8.4 10.2 1 1 6350
6351 2 15.0 8.4 10.799999999999999 1 1 6351
6352 2 15.0 9.0 3.0 1 1 6352
6353 2 15.0 9.0 3.5999999999999996 1 1 6353
6354 2 15.0 9.0 4.2 1 1 6354
6355 2 15.0 9.0 4.8 1 1 6355
6356 2 15.0 9.0 5.3999999999999995 1 1 6356
6357 2 15.0 9.0 6.0 1 1 6357
6358 2 15.0 9.0 6.6 1 1 6358
6359 2 15.0 9.0 7.199999999999999 1 1 6359
6360 2 15.0 9.0 7.8 1 1 6360
6361 2 15.0 9.0 9.0 1 1 6361
6362 2 15.0 9.0 9.6 1 1 6362
6363 2 15.0 9.0 10.2 1 1 6363
6364 2 15.0 9.6 3.5999999999999996 1 1 6364
6365 2 15.0 9.6 5.3999999999999995 1 1 6365
6366 2 15.0 9.6 6.0 1 1 6366
6367 2 15.0 9.6 6.6 1 1 6367
6368 2 15.0 9.6 7.8 1 1 6368
6369 2 15.0 9.6 8.4 1 1 6369
6370 2 15.0 9.6 9.0 1 1 6370
6371 2 15.0 9.6 9.6 1 1 6371
6372 2 15.0 9.6 10.2 1 1 6372
6373 2 15.0 10.2 4.2 1 1 6373
6374 2 15.0 10.2 4.8 1 1 6374
6375 2 15.0 10.2 5.3999999999999995 1 1 6375
6376 2 15.0 10.2 6.0 1 1 6376
6377 2 15.0 10.2 6.6 1 1 6377
6378 2 15.0 10.2 7.199999999999999 1 1 6378
6379 2 15.0 10.2 7.8 1 1 6379
6380 2 15.0 10.2 8.4 1 1 6380
6381 2 15.0 10.2 9.0 1 1 6381
6382 2 15.0 10.2 9.6 1 1 6382
6383 2 15.0 10.799999999999999 4.8 1 1 6383
6384 2 15.0 10.799999999999999 5.3999999999999995 1 1 6384
6385 2 15.0 10.799999999999999 6.6 1 1 6385
6386 2 15.0 10.799999999999999 7.199999999999999 1 1 6386
6387 2 15.0 10.799999999999999 7.8 1 1 6387
6388 2 15.0 10.799999999999999 8.4 1 1 6388
6389 2 15.6 2.4 5.3999999999999995 1 1 6389
6390 2 15.6 2.4 6.0 1 1 6390
6391 2 15.6 2.4 6.6 1 1 6391
6392 2 15.6 2.4 7.199999999999999 1 1 6392
6393 2 15.6 2.4 7.8 1 1 6393
6394 2 15.6 2.4 8.4 1 1 6394
6395 2 15.6 3.0 4.2 1 1 6395
6396 2 15.6 3.0 5.3999999999999995 1 1 6396
6397 2 15.6 3.0 6.0 1 1 6397
6398 2 15.6 3.0 6.6 1 1 6398
6399 2 15.6 3.0 7.199999999999999 1 1 6399
6400 2 15.6 3.0 7.8 1 1 6400
6401 2 15.6 3.0 8.4 1 1 6401
6402 2 15.6 3.0 9.0 1 1 6402
6403 2 15.6 3.5999999999999996 3.5999999999999996 1 1 6403
6404 2 15.6 3.5999999999999996 4.2 1 1 6404
6405 2 15.6 3.5999999999999996 4.8 1 1 6405
6406 2 15.6 3.5999999999999996 5.3999999999999995 1 1 6406
6407 2 15.6 3.5999999999999996 6.0 1 1 6407
6408 2 15.6 3.5999999999999996 7.199999999999999 1 1 6408
6409 2 15.6 3.5999999999999996 7.8 1 1 6409
6410 2 15.6 3.5999999999999996 8.4 1 1 6410
6411 2 15.6 3.5999999999999996 9.0 1 1 6411
6412 2 15.6 3.5999999999999996 9.6 1 1 6412
6413 2 15.6 3.5999999999999996 10.2 1 1 6413
6414 2 15.6 4.2 3.0 1 1 6414
6415 2 15.6 4.2 3.5999999999999996 1 1 6415
6416 2 15.6 4.2 4.2 1 1 6416
6417 2 15.6 4.2 4.8 1 1 6417
6418 2 15.6 4.2 5.3999999999999995 1 1 6418
6419 2 15.6 4.2 6.0 1 1 6419
6420 2 15.6 4.2 6.6 1 1 6420
6421 2 15.6 4.2 7.199999999999999 1 1 6421
6422 2 15.6 4.2 7.8 1 1 6422
6423 2 15.6 4.2 8.4 1 1 6423
6424 2 15.6 4.2 9.0 1 1 6424
6425 2 15.6 4.2 10.2 1 1 6425
6426 2 15.6 4.8 3.0 1 1 6426
6427 2 15.6 4.8 3.5999999999999996 1 1 6427
6428 2 15.6 4.8 4.2 1 1 6428
6429 2 15.6 4.8 4.8 1 1 6429
6430 2 15.6 4.8 5.3999999999999995 1 1 6430
6431 2 15.6 4.8 6.0 1 1 6431
6432 2 15.6 4.8 6.6 1 1 6432
6433 2 15.6 4.8 7.8 1 1 6433
6434 2 15.6 4.8 8.4 1 1 6434
6435 2 15.6 4.8 9.0 1 1 6435
6436 2 15.6 4.8 9.6 1 1 6436
6437 2 15.6 4.8 10.2 1 1 6437
6438 2 15.6 4.8 10.799999999999999 1 1 6438
6439 2 15.6 5.3999999999999995 2.4 1 1 6439
6440 2 15.6 5.3999999999999995 3.0 1 1 6440
6441 2 15.6 5.3999999999999995 3.5999999999999996 1 1 6441
6442 2 15.6 5.3999999999999995 4.2 1 1 6442
6443 2 15.6 5.3999999999999995 4.8 1 1 6443
6444 2 15.6 5.3999999999999995 5.3999999999999995 1 1 6444
6445 2 15.6 5.3999999999999995 6.0 1 1 6445
6446 2 15.6 5.3999999999999995 6.6 1 1 6446
6447 2 15.6 5.3999999999999995 7.199999999999999 1 1 6447
6448 2 15.6 5.3999999999999995 7.8 1 1 6448
6449 2 15.6 5.3999999999999995 8.4 1 1 6449
6450 2 15.6 5.3999999999999995 9.0 1 1 6450
6451 2 15.6 5.3999999999999995 9.6 1 1 6451
6452 2 15.6 6.0 2.4 1 1 6452
6453 2 15.6 6.0 3.5999999999999996 1 1 6453
6454 2 15.6 6.0 4.2 1 1 6454
6455 2 15.6 6.0 4.8 1 1 6455
6456 2 15.6 6.0 5.3999999999999995 1 1 6456
6457 2 15.6 6.0 6.0 1 1 6457
6458 2 15.6 6.0 6.6 1 1 6458
6459 2 15.6 6.0 7.199999999999999 1 1 6459
6460 2 15.6 6.0 7.8 1 1 6460
6461 2 15.6 6.0 8.4 1 1 6461
6462 2 15.6 6.0 9.0 1 1 6462
6463 2 15.6 6.0 9.6 1 1 6463
6464 2 15.6 6.0 10.2 1 1 6464
6465 2 15.6 6.0 10.799999999999999 1 1 6465
6466 2 15.6 6.6 2.4 1 1 6466
6467 2 15.6 6.6 3.0 1 1 6467
6468 2 15.6 6.6 3.5999999999999996 1 1 6468
6469 2 15.6 6.6 4.2 1 1 6469
6470 2 15.6 6.6 4.8 1 1 6470
6471 2 15.6 6.6 5.3999999999999995 1 1 6471
6472 2 15.6 6.6 6.0 1 1 6472
6473 2 15.6 6.6 6.6 1 1 6473
6474 2 15.6 6.6 7.199999999999999 1 1 6474
6475 2 15.6 6.6 7.8 1 1 6475
6476 2 15.6 6.6 8.4 1 1 6476
6477 2 15.6 6.6 9.6 1 1 6477
6478 2 15.6 6.6 10.2 1 1 6478
6479 2 15.6 6.6 10.799999999999999 1 1 6479
6480 2 15.6 7.199999999999999 2.4 1 1 6480
6481 2 15.6 7.199999999999999 3.0 1 1 6481
6482 2 15.6 7.199999999999999 3.5999999999999996 1 1 6482
6483 2 15.6 7.199999999999999 4.2 1 1 6483
6484 2 15.6 7.199999999999999 4.8 1 1 6484
6485 2 15.6 7.199999999999999 5.3999999999999995 1 1 6485
6486 2 15.6 7.199999999999999 6.0 1 1 6486
6487 2 15.6 7.199999999999999 6.6 1 1 6487
6488 2 15.6 7.199999999999999 7.199999999999999 1 1 6488
6489 2 15.6 7.199999999999999 7.8 1 1 6489
6490 2 15.6 7.199999999999999 8.4 1 1 6490
6491 2 15.6 7.199999999999999 9.0 1 1 6491
6492 2 15.6 7.199999999999999 9.6 1 1 6492
6493 2 15.6 7.199999999999999 10.2 1 1 6493
6494 2 15.6 7.199999999999999 10.799999999999999 1 1 6494
6495 2 15.6 7.8 2.4 1 1 6495
6496 2 15.6 7.8 3.0 1 1 6496
6497 2 15.6 7.8 3.5999999999999996 1 1 6497
6498 2 15.6 7.8 4.2 1 1 6498
6499 2 15.6 7.8 4.8 1 1 6499
6500 2 15.6 7.8 5.3999999999999995 1 1 6500
6501 2 15.6 7.8 6.0 1 1 6501
6502 2 15.6 7.8 7.199999999999999 1 1 6502
6503 2 15.6 7.8 7.8 1 1 6503
6504 2 15.6 7.8 9.0 1 1 6504
6505 2 15.6 7.8 9.6 1 1 6505
6506 2 15.6 7.8 10.2 1 1 6506
6507 2 15.6 7.8 10.799999999999999 1 1 6507
6508 2 15.6 8.4 2.4 1 1 6508
6509 2 15.6 8.4 3.0 1 1 6509
6510 2 15.6 8.4 3.5999999999999996 1 1 6510
6511 2 15.6 8.4 4.2 1 1 6511
6512 2 15.6 8.4 4.8 1 1 6512
6513 2 15.6 8.4 5.3999999999999995 1 1 6513
6514 2 15.6 8.4 6.0 1 1 6514
6515 2 15.6 8.4 6.6 1 1 6515
6516 2 15.6 8.4 8.4 1 1 6516
6517 2 15.6 8.4 9.0 1 1 6517
6518 2 15.6 8.4 9.6 1 1 6518
6519 2 15.6 8.4 10.2 1 1 6519
6520 2 15.6 9.0 3.0 1 1 6520
6521 2 15.6 9.0 4.2 1 1 6521
6522 2 15.6 9.0 4.8 1 1 6522
6523 2 15.6 9.0 5.3999999999999995 1 1 6523
6524 2 15.6 9.0 6.0 1 1 6524
6525 2 15.719064908322741 8.879047919899913 6.952625502677498 1 1 6525
6526 2 15.6 9.0 7.8 1 1 6526
6527 2 15.6 9.0 8.4 1 1 6527
6528 2 15.6 9.0 9.0 1 1 6528
6529 2 15.6 9.0 9.6 1 1 6529
6530 2 15.6 9.0 10.2 1 1 6530
6531 2 15.719064908322741 9.479047919899912 3.3526255026775007 1 1 6531
6532 2 15.6 9.6 4.2 1 1 6532
6533 2 15.6 9.6 5.3999999999999995 1 1 6533
6534 2 15.6 9.6 6.0 1 1 6534
6535 2 15.6 9.6 6.6 1 1 6535
6536 2 15.6 9.6 7.8 1 1 6536
6537 2 15.6 9.6 8.4 1 1 6537
6538 2 15.6 9.6 9.0 1 1 6538
6539 2 15.6 9.6 9.6 1 1 6539
6540 2 15.6 9.6 10.2 1 1 6540
6541 2 15.6 10.2 3.5999999999999996 1 1 6541
6542 2 15.6 10.2 4.2 1 1 6542
6543 2 15.6 10.2 4.8 1 1 6543
6544 2 15.6 10.2 5.3999999999999995 1 1 6544
6545 2 15.6 10.2 6.0 1 1 6545
6546 2 15.6 10.2 6.6 1 1 6546
6547 2 15.6 10.2 7.199999999999999 1 1 6547
6548 2 15.6 10.2 8.4 1 1 6548
6549 2 15.6 10.2 9.0 1 1 6549
6550 2 15.6 10.2 9.6 1 1 6550
6551 2 15.6 10.799999999999999 4.8 1 1 6551
6552 2 15.6 10.799999999999999 5.3999999999999995 1 1 6552
6553 2 15.6 10.799999999999999 6.0 1 1 6553
6554 2 15.6 10.799999999999999 7.199999999999999 1 1 6554
6555 2 15.6 10.799999999999999 7.8 1 1 6555
6556 2 15.6 10.799999999999999 8.4 1 1 6556
6557 2 16.2 2.4 5.3999999999999995 1 1 6557
6558 2 16.2 2.4 6.0 1 1 6558
6559 2 16.2 2.4 6.6 1 1 6559
6560 2 16.2 2.4 7.199999999999999 1 1 6560
6561 2 16.2 2.4 8.4 1 1 6561
6562 2 16.2 3.0 4.2 1 1 6562
6563 2 16.2 3.0 4.8 1 1 6563
6564 2 16.2 3.0 5.3999999999999995 1 1 6564
6565 2 16.2 3.0 6.0 1 1 6565
6566 2 16.2 3.0 7.199999999999999 1 1 6566
6567 2 16.2 3.0 7.8 1 1 6567
6568 2 16.2 3.0 8.4 1 1 6568
6569 2 16.2 3.0 9.0 1 1 6569
6570 2 16.2 3.5999999999999996 3.5999999999999996 1 1 6570
6571 2 16.2 3.5999999999999996 4.2 1 1 6571
6572 2 16.2 3.5999999999999996 5.3999999999999995 1 1 6572
6573 2 16.2 3.5999999999999996 6.0 1 1 6573
6574 2 16.2 3.5999999999999996 6.6 1 1 6574
6575 2 16.2 3.5999999999999996 7.199999999999999 1 1 6575
6576 2 16.2 3.5999999999999996 7.8 1 1 6576
6577 2 16.2 3.5999999999999996 8.4 1 1 6577
6578 2 16.2 3.5999999999999996 9.0 1 1 6578
6579 2 16.2 3.5999999999999996 10.2 1 1 6579
6580 2 16.2 4.2 3.0 1 1 6580
6581 2 16.2 4.2 4.8 1 1 6581
6582 2 16.2 4.2 5.3999999999999995 1 1 6582
6583 2 16.2 4.2 6.0 1 1 6583
6584 2 16.2 4.2 6.6 1 1 6584
6585 2 16.2 4.2 7.199999999999999 1 1 6585
6586 2 16.2 4.2 7.8 1 1 6586
6587 2 16.2 4.2 8.4 1 1 6587
6588 2 16.2 4.2 9.0 1 1 6588
6589 2 16.2 4.2 9.6 1 1 6589
6590 2 16.2 4.2 10.2 1 1 6590
6591 2 16.2 4.8 3.0 1 1 6591
6592 2 16.2 4.8 3.5999999999999996 1 1 6592
6593 2 16.2 4.8 4.2 1 1 6593
6594 2 16.2 4.8 4.8 1 1 6594
6595 2 16.2 4.8 5.3999999999999995 1 1 6595
6596 2 16.2 4.8 6.0 1 1 6596
6597 2 16.2 4.8 6.6 1 1 6597
6598 2 16.2 4.8 7.199999999999999 1 1 6598
6599 2 16.2 4.8 7.8 1 1 6599
6600 2 16.2 4.8 9.0 1 1 6600
6601 2 16.2 4.8 10.2 1 1 6601
6602 2 16.2 4.8 10.799999999999999 1 1 6602
6603 2 16.2 5.3999999999999995 3.0 1 1 6603
6604 2 16.2 5.3999999999999995 3.5999999999999996 1 1 6604
6605 2 16.2 5.3999999999999995 4.8 1 1 6605
6606 2 16.2 5.3999999999999995 5.3999999999999995 1 1 6606
6607 2 16.2 5.3999999999999995 6.0 1 1 6607
6608 2 16.2 5.3999999999999995 6.6 1 1 6608
6609 2 16.2 5.3999999999999995 7.199999999999999 1 1 6609
6610 2 16.2 5.3999999999999995 7.8 1 1 6610
6611 2 16.2 5.3999999999999995 8.4 1 1 6611
6612 2 16.2 5.3999999999999995 9.0 1 1 6612
6613 2 16.2 5.3999999999999995 9.6 1 1 6613
6614 2 16.2 5.3999999999999995 10.2 1 1 6614
6615 2 16.2 5.3999999999999995 10.799999999999999 1 1 6615
6616 2 16.2 6.0 2.4 1 1 6616
6617 2 16.2 6.0 3.5999999999999996 1 1 6617
6618 2 16.2 6.0 4.2 1 1 6618
6619 2 16.2 6.0 5.3999999999999995 1 1 6619
6620 2 16.2 6.0 6.0 1 1 6620
6621 2 16.2 6.0 6.6 1 1 6621
6622 2 16.2 6.0 7.199999999999999 1 1 6622
6623 2 16.2 6.0 7.8 1 1 6623
6624 2 16.2 6.0 8.4 1 1 6624
6625 2 16.2 6.0 9.0 1 1 6625
6626 2 16.2 6.0 9.6 1 1 6626
6627 2 16.2 6.0 10.2 1 1 6627
6628 2 16.2 6.0 10.799999999999999 1 1 6628
6629 2 16.2 6.6 2.4 1 1 6629
6630 2 16.2 6.6 3.0 1 1 6630
6631 2 16.2 6.6 3.5999999999999996 1 1 6631
6632 2 16.2 6.6 4.8 1 1 6632
6633 2 16.2 6.6 5.3999999999999995 1 1 6633
6634 2 16.2 6.6 6.0 1 1 6634
6635 2 16.2 6.6 6.6 1 1 6635
6636 2 16.2 6.6 7.199999999999999 1 1 6636
6637 2 16.2 6.6 7.8 1 1 6637
6638 2 16.2 6.6 9.0 1 1 6638
6639 2 16.2 6.6 9.6 1 1 6639
6640 2 16.2 6.6 10.2 1 1 6640
6641 2 16.2 6.6 10.799999999999999 1 1 6641
6642 2 16.2 7.199999999999999 2.4 1 1 6642
6643 2 16.2 7.199999999999999 3.0 1 1 6643
6644 2 16.2 7.199999999999999 3.5999999999999996 1 1 6644
6645 2 16.2 7.199999999999999 4.2 1 1 6645
6646 2 16.2 7.199999999999999 4.8 1 1 6646
6647 2 16.2 7.199999999999999 5.3999999999999995 1 1 6647
6648 2 16.2 7.199999999999999 6.0 1 1 6648
6649 2 16.2 7.199999999999999 6.6 1 1 6649
6650 2 16.2 7.199999999999999 7.199999999999999 1 1 6650
6651 2 16.2 7.199999999999999 7.8 1 1 6651
6652 2 16.2 7.199999999999999 8.4 1 1 6652
6653 2 16.2 7.199999999999999 9.0 1 1 6653
6654 2 16.2 7.199999999999999 10.2 1 1 6654
6655 2 16.2 7.199999999999999 10.799999999999999 1 1 6655
6656 2 16.2 7.8 3.0 1 1 6656
6657 2 16.2 7.8 3.5999999999999996 1 1 6657
6658 2 16.2 7.8 4.2 1 1 6658
6659 2 16.2 7.8 4.8 1 1 6659
6660 2 16.2 7.8 5.3999999999999995 1 1 6660
6661 2 16.2 7.8 6.0 1 1 6661
6662 2 16.2 7.8 6.6 1 1 6662
6663 2 16.2 7.8 7.199999999999999 1 1 6663
6664 2 16.2 7.8 7.8 1 1 6664
6665 2 16.2 7.8 8.4 1 1 6665
6666 2 16.2 7.8 9.0 1 1 6666
6667 2 16.2 7.8 10.2 1 1 6667
6668 2 16.2 7.8 10.799999999999999 1 1 6668
6669 2 16.2 8.4 3.0 1 1 6669
6670 2 16.2 8.4 3.5999999999999996 1 1 6670
6671 2 16.2 8.4 4.2 1 1 6671
6672 2 16.2 8.4 4.8 1 1 6672
6673 2 16.2 8.4 5.3999999999999995 1 1 6673
6674 2 16.2 8.4 6.0 1 1 6674
6675 2 16.2 8.4 6.6 1 1 6675
6676 2 16.2 8.4 7.199999999999999 1 1 6676
6677 2 16.2 8.4 8.4 1 1 6677
6678 2 16.2 8.4 9.0 1 1 6678
6679 2 16.2 8.4 9.6 1 1 6679
6680 2 16.2 8.4 10.2 1 1 6680
6681 2 16.2 8.4 10.799999999999999 1 1 6681
6682 2 16.2 9.0 3.5999999999999996 1 1 6682
6683 2 16.2 9.0 4.2 1 1 6683
6684 2 16.2 9.0 4.8 1 1 6684
6685 2 16.2 9.0 5.3999999999999995 1 1 6685
6686 2 16.2 9.0 6.0 1 1 6686
6687 2 16.2 9.0 6.6 1 1 6687
6688 2 16.2 9.0 7.8 1 1 6688
6689 2 16.2 9.0 8.4 1 1 6689
6690 2 16.2 9.0 9.0 1 1 6690
6691 2 16.2 9.0 10.2 1 1 6691
6692 2 16.2 9.6 4.2 1 1 6692
6693 2 16.2 9.6 4.8 1 1 6693
6694 2 16.2 9.6 5.3999999999999995 1 1 6694
6695 2 16.2 9.6 6.0 1 1 6695
6696 2 16.2 9.6 6.6 1 1 6696
6697 2 16.2 9.6 7.8 1 1 6697
6698 2 16.2 9.6 8.4 1 1 6698
6699 2 16.2 9.6 9.0 1 1 6699
6700 2 16.2 9.6 9.6 1 1 6700
6701 2 16.2 9.6 10.2 1 1 6701
6702 2 16.2 10.2 3.5999999999999996 1 1 6702
6703 2 16.2 10.2 4.2 1 1 6703
6704 2 16.2 10.2 5.3999999999999995 1 1 6704
6705 2 16.2 10.2 6.0 1 1 6705
6706 2 16.2 10.2 6.6 1 1 6706
6707 2 16.2 10.2 7.199999999999999 1 1 6707
6708 2 16.2 10.2 8.4 1 1 6708
6709 2 16.2 10.2 9.0 1 1 6709
6710 2 16.2 10.2 9.6 1 1 6710
6711 2 16.2 10.799999999999999 6.0 1 1 6711
6712 2 16.2 10.799999999999999 6.6 1 1 6712
6713 2 16.2 10.799999999999999 7.199999999999999 1 1 6713
6714 2 16.2 10.799999999999999 7.8 1 1 6714
6715 2 16.2 10.799999999999999 8.4 1 1 6715
6716 2 16.8 2.4 5.3999999999999995 1 1 6716
6717 2 16.8 2.4 6.0 1 1 6717
6718 2 16.8 2.4 6.6 1 1 6718
6719 2 16.8 2.4 7.199999999999999 1 1 6719
6720 2 16.8 2.4 7.8 1 1 6720
6721 2 16.8 2.4 8.4 1 1 6721
6722 2 16.8 3.0 4.2 1 1 6722
6723 2 16.8 3.0 4.8 1 1 6723
6724 2 16.8 3.0 5.3999999999999995 1 1 6724
6725 2 16.8 3.0 6.6 1 1 6725
6726 2 16.8 3.0 7.8 1 1 6726
6727 2 16.8 3.0 8.4 1 1 6727
6728 2 16.8 3.0 9.0 1 1 6728
6729 2 16.8 3.5999999999999996 3.5999999999999996 1 1 6729
6730 2 16.8 3.5999999999999996 4.2 1 1 6730
6731 2 16.8 3.5999999999999996 4.8 1 1 6731
6732 2 16.8 3.5999999999999996 5.3999999999999995 1 1 6732
6733 2 16.8 3.5999999999999996 6.0 1 1 6733
6734 2 16.8 3.5999999999999996 6.6 1 1 6734
6735 2 16.8 3.5999999999999996 7.199999999999999 1 1 6735
6736 2 16.8 3.5999999999999996 7.8 1 1 6736
6737 2 16.8 3.5999999999999996 9.0 1 1 6737
6738 2 16.8 3.5999999999999996 9.6 1 1 6738
6739 2 16.8 3.5999999999999996 10.2 1 1 6739
6740 2 16.8 4.2 3.0 1 1 6740
6741 2 16.8 4.2 4.2 1 1 6741
6742 2 16.8 4.2 4.8 1 1 6742
6743 2 16.8 4.2 5.3999999999999995 1 1 6743
6744 2 16.8 4.2 6.0 1 1 6744
6745 2 16.8 4.2 6.6 1 1 6745
6746 2 16.8 4.2 7.199999999999999 1 1 6746
6747 2 16.8 4.2 7.8 1 1 6747
6748 2 16.8 4.2 8.4 1 1 6748
6749 2 16.8 4.2 9.0 1 1 6749
6750 2 16.8 4.2 9.6 1 1 6750
6751 2 16.8 4.2 10.2 1 1 6751
6752 2 16.8 4.8 3.0 1 1 6752
6753 2 16.8 4.8 3.5999999999999996 1 1 6753
6754 2 16.8 4.8 4.2 1 1 6754
6755 2 16.8 4.8 4.8 1 1 6755
6756 2 16.8 4.8 5.3999999999999995 1 1 6756
6757 2 16.8 4.8 6.0 1 1 6757
6758 2 16.8 4.8 6.6 1 1 6758
6759 2 16.8 4.8 7.199999999999999 1 1 6759
6760 2 16.8 4.8 7.8 1 1 6760
6761 2 16.8 4.8 8.4 1 1 6761
6762 2 16.8 4.8 9.0 1 1 6762
6763 2 16.8 4.8 10.2 1 1 6763
6764 2 16.8 4.8 10.799999999999999 1 1 6764
6765 2 16.8 5.3999999999999995 2.4 1 1 6765
6766 2 16.8 5.3999999999999995 3.0 1 1 6766
6767 2 16.8 5.3999999999999995 3.5999999999999996 1 1 6767
6768 2 16.8 5.3999999999999995 4.8 1 1 6768
6769 2 16.8 5.3999999999999995 5.3999999999999995 1 1 6769
6770 2 16.8 5.3999999999999995 6.0 1 1 6770
6771 2 16.8 5.3999999999999995 7.199999999999999 1 1 6771
6772 2 16.8 5.3999999999999995 7.8 1 1 6772
6773 2 16.8 5.3999999999999995 8.4 1 1 6773
6774 2 16.8 5.3999999999999995 9.0 1 1 6774
6775 2 16.8 5.3999999999999995 9.6 1 1 6775
6776 2 16.8 5.3999999999999995 10.2 1 1 6776
6777 2 16.8 5.3999999999999995 10.799999999999999 1 1 6777
6778 2 16.8 6.0 2.4 1 1 6778
6779 2 16.8 6.0 3.0 1 1 6779
6780 2 16.8 6.0 3.5999999999999996 1 1 6780
6781 2 16.8 6.0 4.2 1 1 6781
6782 2 16.8 6.0 4.8 1 1 6782
6783 2 16.8 6.0 5.3999999999999995 1 1 6783
6784 2 16.8 6.0 6.0 1 1 6784
6785 2 16.8 6.0 6.6 1 1 6785
6786 2 16.8 6.0 7.199999999999999 1 1 6786
6787 2 16.8 6.0 7.8 1 1 6787
6788 2 16.8 6.0 8.4 1 1 6788
6789 2 16.8 6.0 9.0 1 1 6789
6790 2 16.8 6.0 9.6 1 1 6790
6791 2 16.8 6.0 10.2 1 1 6791
6792 2 16.8 6.0 10.799999999999999 1 1 6792
6793 2 16.8 6.6 2.4 1 1 6793
6794 2 16.8 6.6 3.0 1 1 6794
6795 2 16.8 6.6 3.5999999999999996 1 1 6795
6796 2 16.8 6.6 4.2 1 1 6796
6797 2 16.8 6.6 4.8 1 1 6797
6798 2 16.8 6.6 5.3999999999999995 1 1 6798
6799 2 16.8 6.6 6.0 1 1 6799
6800 2 16.8 6.6 6.6 1 1 6800
6801 2 16.8 6.6 7.199999999999999 1 1 6801
6802 2 16.8 6.6 7.8 1 1 6802
6803 2 16.8 6.6 8.4 1 1 6803
6804 2 16.8 6.6 9.0 1 1 6804
6805 2 16.8 6.6 9.6 1 1 6805
6806 2 16.8 6.6 10.799999999999999 1 1 6806
6807 2 16.8 7.199999999999999 2.4 1 1 6807
6808 2 16.8 7.199999999999999 3.0 1 1 6808
6809 2 16.8 7.199999999999999 4.2 1 1 6809
6810 2 16.8 7.199999999999999 4.8 1 1 6810
6811 2 16.8 7.199999999999999 5.3999999999999995 1 1 6811
6812 2 16.8 7.199999999999999 6.0 1 1 6812
6813 2 16.8 7.199999999999999 6.6 1 1 6813
6814 2 16.8 7.199999999999999 7.8 1 1 6814
6815 2 16.8 7.199999999999999 8.4 1 1 6815
6816 2 16.8 7.199999999999999 9.0 1 1 6816
6817 2 16.8 7.199999999999999 9.6 1 1 6817
6818 2 16.8 7.199999999999999 10.799999999999999 1 1 6818
6819 2 16.8 7.8 3.0 1 1 6819
6820 2 16.8 7.8 3.5999999999999996 1 1 6820
6821 2 16.8 7.8 4.2 1 1 6821
6822 2 16.8 7.8 4.8 1 1 6822
6823 2 16.8 7.8 5.3999999999999995 1 1 6823
6824 2 16.8 7.8 6.0 1 1 6824
6825 2 16.8 7.8 6.6 1 1 6825
6826 2 16.8 7.8 7.199999999999999 1 1 6826
6827 2 16.8 7.8 7.8 1 1 6827
6828 2 16.8 7.8 8.4 1 1 6828
6829 2 16.8 7.8 9.0 1 1 6829
6830 2 16.8 7.8 9.6 1 1 6830
6831 2 16.8 7.8 10.2 1 1 6831
6832 2 16.8 7.8 10.799999999999999 1 1 6832
6833 2 16.8 8.4 2.4 1 1 6833
6834 2 16.8 8.4 3.0 1 1 6834
6835 2 16.8 8.4 3.5999999999999996 1 1 6835
6836 2 16.8 8.4 4.2 1 1 6836
6837 2 16.8 8.4 4.8 1 1 6837
6838 2 16.8 8.4 5.3999999999999995 1 1 6838
6839 2 16.8 8.4 6.0 1 1 6839
6840 2 16.8 8.4 6.6 1 1 6840
6841 2 16.8 8.4 7.199999999999999 1 1 6841
6842 2 16.8 8.4 8.4 1 1 6842
6843 2 16.8 8.4 9.0 1 1 6843
6844 2 16.8 8.4 9.6 1 1 6844
6845 2 16.8 8.4 10.2 1 1 6845
6846 2 16.8 8.4 10.799999999999999 1 1 6846
6847 2 16.8 9.0 3.0 1 1 6847
6848 2 16.8 9.0 4.2 1 1 6848
6849 2 16.8 9.0 4.8 1 1 6849
6850 2 16.8 9.0 5.3999999999999995 1 1 6850
6851 2 16.8 9.0 6.6 1 1 6851
6852 2 16.8 9.0 7.199999999999999 1 1 6852
6853 2 16.8 9.0 7.8 1 1 6853
6854 2 16.8 9.0 8.4 1 1 6854
6855 2 16.8 9.0 9.0 1 1 6855
6856 2 16.8 9.0 9.6 1 1 6856
6857 2 16.8 9.0 10.2 1 1 6857
6858 2 16.8 9.6 3.5999999999999996 1 1 6858
6859 2 16.8 9.6 4.2 1 1 6859
6860 2 16.8 9.6 4.8 1 1 6860
6861 2 16.8 9.6 5.3999999999999995 1 1 6861
6862 2 16.8 9.6 6.6 1 1 6862
6863 2 16.8 9.6 7.199999999999999 1 1 6863
6864 2 16.8 9.6 7.8 1 1 6864
6865 2 16.8 9.6 8.4 1 1 6865
6866 2 16.8 9.6 9.6 1 1 6866
6867 2 16.8 9.6 10.2 1 1 6867
6868 2 16.8 10.2 3.5999999999999996 1 1 6868
6869 2 16.8 10.2 4.2 1 1 6869
6870 2 16.8 10.2 4.8 1 1 6870
6871 2 16.8 10.2 5.3999999999999995 1 1 6871
6872 2 16.8 10.2 6.0 1 1 6872
6873 2 16.8 10.2 6.6 1 1 6873
6874 2 16.8 10.2 7.8 1 1 6874
6875 2 16.8 10.2 8.4 1 1 6875
6876 2 16.8 10.2 9.6 1 1 6876
6877 2 16.8 10.799999999999999 4.8 1 1 6877
6878 2 16.8 10.799999999999999 5.3999999999999995 1 1 6878
6879 2 16.8 10.799999999999999 6.6 1 1 6879
6880 2 16.8 10.799999999999999 7.199999999999999 1 1 6880
6881 2 16.8 10.799999999999999 8.4 1 1 6881
6882 2 17.4 2.4 5.3999999999999995 1 1 6882
6883 2 17.4 2.4 6.0 1 1 6883
6884 2 17.4 2.4 6.6 1 1 6884
6885 2 17.4 2.4 7.199999999999999 1 1 6885
6886 2 17.4 2.4 7.8 1 1 6886
6887 2 17.4 2.4 8.4 1 1 6887
6888 2 17.4 3.0 4.2 1 1 6888
6889 2 17.4 3.0 5.3999999999999995 1 1 6889
6890 2 17.4 3.0 6.0 1 1 6890
6891 2 17.4 3.0 6.6 1 1 6891
6892 2 17.4 3.0 7.199999999999999 1 1 6892
6893 2 17.4 3.0 7.8 1 1 6893
6894 2 17.4 3.0 8.4 1 1 6894
6895 2 17.4 3.0 9.0 1 1 6895
6896 2 17.4 3.5999999999999996 3.5999999999999996 1 1 6896
6897 2 17.4 3.5999999999999996 4.2 1 1 6897
6898 2 17.4 3.5999999999999996 4.8 1 1 6898
6899 2 17.4 3.5999999999999996 5.3999999999999995 1 1 6899
6900 2 17.4 3.5999999999999996 6.6 1 1 6900
6901 2 17.4 3.5999999999999996 7.199999999999999 1 1 6901
6902 2 17.4 3.5999999999999996 7.8 1 1 6902
6903 2 17.4 3.5999999999999996 9.0 1 1 6903
6904 2 17.4 4.2 3.0 1 1 6904
6905 2 17.4 4.2 3.5999999999999996 1 1 6905
6906 2 17.4 4.2 4.8 1 1 6906
6907 2 17.4 4.2 5.3999999999999995 1 1 6907
6908 2 17.4 4.2 6.0 1 1 6908
6909 2 17.51906490832274 4.079047919899917 8.152625502677504 1 1 6909
6910 2 17.4 4.2 9.0 1 1 6910
6911 2 17.4 4.2 9.6 1 1 6911
6912 2 17.4 4.8 3.0 1 1 6912
6913 2 17.4 4.8 3.5999999999999996 1 1 6913
6914 2 17.4 4.8 4.2 1 1 6914
6915 2 17.4 4.8 4.8 1 1 6915
6916 2 17.4 4.8 6.0 1 1 6916
6917 2 17.4 4.8 6.6 1 1 6917
6918 2 17.4 4.8 7.199999999999999 1 1 6918
6919 2 17.4 4.8 7.8 1 1 6919
6920 2 17.4 4.8 8.4 1 1 6920
6921 2 17.4 4.8 10.2 1 1 6921
6922 2 17.4 4.8 10.799999999999999 1 1 6922
6923 2 17.4 5.3999999999999995 2.4 1 1 6923
6924 2 17.4 5.3999999999999995 3.5999999999999996 1 1 6924
6925 2 17.4 5.3999999999999995 4.2 1 1 6925
6926 2 17.4 5.3999999999999995 5.3999999999999995 1 1 6926
6927 2 17.4 5.3999999999999995 6.0 1 1 6927
6928 2 17.4 5.3999999999999995 6.6 1 1 6928
6929 2 17.4 5.3999999999999995 7.199999999999999 1 1 6929
6930 2 17.4 5.3999999999999995 7.8 1 1 6930
6931 2 17.4 5.3999999999999995 8.4 1 1 6931
6932 2 17.4 5.3999999999999995 9.0 1 1 6932
6933 2 17.4 5.3999999999999995 9.6 1 1 6933
6934 2 17.4 5.3999999999999995 10.2 1 1 6934
6935 2 17.4 5.3999999999999995 10.799999999999999 1 1 6935
6936 2 17.4 6.0 2.4 1 1 6936
6937 2 17.4 6.0 3.0 1 1 6937
6938 2 17.4 6.0 3.5999999999999996 1 1 6938
6939 2 17.4 6.0 4.2 1 1 6939
6940 2 17.4 6.0 6.0 1 1 6940
6941 2 17.4 6.0 6.6 1 1 6941
6942 2 17.4 6.0 7.8 1 1 6942
6943 2 17.4 6.0 8.4 1 1 6943
6944 2 17.4 6.0 9.0 1 1 6944
6945 2 17.4 6.0 9.6 1 1 6945
6946 2 17.4 6.0 10.2 1 1 6946
6947 2 17.4 6.0 10.799999999999999 1 1 6947
6948 2 17.4 6.6 2.4 1 1 6948
6949 2 17.4 6.6 3.0 1 1 6949
6950 2 17.4 6.6 3.5999999999999996 1 1 6950
6951 2 17.4 6.6 4.2 1 1 6951
6952 2 17.4 6.6 4.8 1 1 6952
6953 2 17.4 6.6 5.3999999999999995 1 1 6953
6954 2 17.4 6.6 6.0 1 1 6954
6955 2 17.4 6.6 6.6 1 1 6955
6956 2 17.4 6.6 7.199999999999999 1 1 6956
6957 2 17.4 6.6 7.8 1 1 6957
6958 2 17.4 6.6 9.0 1 1 6958
6959 2 17.4 6.6 9.6 1 1 6959
6960 2 17.4 6.6 10.2 1 1 6960
6961 2 17.4 7.199999999999999 2.4 1 1 6961
6962 2 17.4 7.199999999999999 3.0 1 1 6962
6963 2 17.4 7.199999999999999 3.5999999999999996 1 1 6963
6964 2 17.4 7.199999999999999 4.2 1 1 6964
6965 2 17.4 7.199999999999999 4.8 1 1 6965
6966 2 17.4 7.199999999999999 5.3999999999999995 1 1 6966
6967 2 17.4 7.199999999999999 6.0 1 1 6967
6968 2 17.4 7.199999999999999 6.6 1 1 6968
6969 2 17.4 7.199999999999999 7.199999999999999 1 1 6969
6970 2 17.4 7.199999999999999 9.0 1 1 6970
6971 2 17.4 7.199999999999999 9.6 1 1 6971
6972 2 17.4 7.199999999999999 10.2 1 1 6972
6973 2 17.4 7.199999999999999 10.799999999999999 1 1 6973
6974 2 17.4 7.8 3.0 1 1 6974
6975 2 17.4 7.8 4.2 1 1 6975
6976 2 17.4 7.8 5.3999999999999995 1 1 6976
6977 2 17.4 7.8 6.6 1 1 6977
6978 2 17.4 7.8 7.199999999999999 1 1 6978
6979 2 17.4 7.8 7.8 1 1 6979
6980 2 17.4 7.8 8.4 1 1 6980
6981 2 17.4 7.8 9.0 1 1 6981
6982 2 17.4 7.8 9.6 1 1 6982
6983 2 17.4 7.8 10.2 1 1 6983
6984 2 17.4 7.8 10.799999999999999 1 1 6984
6985 2 17.4 8.4 2.4 1 1 6985
6986 2 17.4 8.4 3.0 1 1 6986
6987 2 17.4 8.4 4.2 1 1 6987
6988 2 17.4 8.4 4.8 1 1 6988
6989 2 17.4 8.4 5.3999999999999995 1 1 6989
6990 2 17.4 8.4 6.0 1 1 6990
6991 2 17.4 8.4 6.6 1 1 6991
6992 2 17.4 8.4 7.199999999999999 1 1 6992
6993 2 17.4 8.4 7.8 1 1 6993
6994 2 17.4 8.4 8.4 1 1 6994
6995 2 17.4 8.4 9.0 1 1 6995
6996 2 17.4 8.4 9.6 1 1 6996
6997 2 17.4 8.4 10.2 1 1 6997
6998 2 17.4 9.0 3.0 1 1 6998
6999 2 17.4 9.0 3.5999999999999996 1 1 6999
7000 2 17.4 9.0 4.2 1 1 7000
7001 2 17.4 9.0 4.8 1 1 7001
7002 2 17.4 9.0 6.0 1 1 7002
7003 2 17.4 9.0 6.6 1 1 7003
7004 2 17.4 9.0 7.199999999999999 1 1 7004
7005 2 17.4 9.0 8.4 1 1 7005
7006 2 17.4 9.0 9.0 1 1 7006
7007 2 17.4 9.0 9.6 1 1 7007
7008 2 17.4 9.0 10.2 1 1 7008
7009 2 17.4 9.6 3.5999999999999996 1 1 7009
7010 2 17.4 9.6 4.2 1 1 7010
7011 2 17.4 9.6 4.8 1 1 7011
7012 2 17.4 9.6 6.0 1 1 7012
7013 2 17.4 9.6 6.6 1 1 7013
7014 2 17.4 9.6 7.8 1 1 7014
7015 2 17.4 9.6 8.4 1 1 7015
7016 2 17.4 9.6 9.0 1 1 7016
7017 2 17.4 9.6 9.6 1 1 7017
7018 2 17.4 10.2 3.5999999999999996 1 1 7018
7019 2 17.4 10.2 4.2 1 1 7019
7020 2 17.4 10.2 4.8 1 1 7020
7021 2 17.4 10.2 5.3999999999999995 1 1 7021
7022 2 17.4 10.2 6.0 1 1 7022
7023 2 17.4 10.2 6.6 1 1 7023
7024 2 17.4 10.2 7.199999999999999 1 1 7024
7025 2 17.4 10.2 7.8 1 1 7025
7026 2 17.4 10.2 9.0 1 1 7026
7027 2 17.4 10.2 9.6 1 1 7027
7028 2 17.4 10.799999999999999 4.8 1 1 7028
7029 2 17.4 10.799999999999999 5.3999999999999995 1 1 7029
7030 2 17.4 10.799999999999999 6.6 1 1 7030
7031 2 17.4 10.799999999999999 7.8 1 1 7031
7032 2 17.4 10.799999999999999 8.4 1 1 7032
7033 2 18.0 2.4 5.3999999999999995 1 1 7033
7034 2 18.0 2.4 6.0 1 1 7034
7035 2 18.0 2.4 6.6 1 1 7035
7036 2 18.0 2.4 7.199999999999999 1 1 7036
7037 2 18.0 2.4 7.8 1 1 7037
7038 2 18.0 2.4 8.4 1 1 7038
7039 2 18.0 3.0 4.2 1 1 7039
7040 2 18.0 3.0 4.8 1 1 7040
7041 2 18.0 3.0 5.3999999999999995 1 1 7041
7042 2 18.0 3.0 6.6 1 1 7042
7043 2 18.0 3.0 7.199999999999999 1 1 7043
7044 2 18.0 3.0 7.8 1 1 7044
7045 2 18.0 3.0 8.4 1 1 7045
7046 2 18.0 3.0 9.0 1 1 7046
7047 2 18.0 3.5999999999999996 3.5999999999999996 1 1 7047
7048 2 18.0 3.5999999999999996 4.2 1 1 7048
7049 2 18.0 3.5999999999999996 4.8 1 1 7049
7050 2 18.0 3.5999999999999996 5.3999999999999995 1 1 7050
7051 2 18.0 3.5999999999999996 6.0 1 1 7051
7052 2 18.0 3.5999999999999996 6.6 1 1 7052
7053 2 18.0 3.5999999999999996 7.8 1 1 7053
7054 2 18.0 3.5999999999999996 8.4 1 1 7054
7055 2 18.0 3.5999999999999996 9.0 1 1 7055
7056 2 18.0 3.5999999999999996 9.6 1 1 7056
7057 2 18.0 3.5999999999999996 10.2 1 1 7057
7058 2 18.0 4.2 3.0 1 1 7058
7059 2 18.0 4.2 3.5999999999999996 1 1 7059
7060 2 18.0 4.2 4.2 1 1 7060
7061 2 18.0 4.2 4.8 1 1 7061
7062 2 18.0 4.2 5.3999999999999995 1 1 7062
7063 2 18.0 4.2 6.6 1 1 7063
7064 2 18.0 4.2 7.199999999999999 1 1 7064
7065 2 18.0 4.2 7.8 1 1 7065
7066 2 18.0 4.2 9.0 1 1 7066
7067 2 18.0 4.2 9.6 1 1 7067
7068 2 18.0 4.2 10.2 1 1 7068
7069 2 18.0 4.8 3.0 1 1 7069
7070 2 18.0 4.8 3.5999999999999996 1 1 7070
7071 2 18.0 4.8 4.8 1 1 7071
7072 2 18.0 4.8 5.3999999999999995 1 1 7072
7073 2 18.0 4.8 6.0 1 1 7073
7074 2 18.0 4.8 7.199999999999999 1 1 7074
7075 2 18.0 4.8 7.8 1 1 7075
7076 2 18.0 4.8 8.4 1 1 7076
7077 2 18.0 4.8 9.0 1 1 7077
7078 2 18.0 4.8 9.6 1 1 7078
7079 2 18.0 4.8 10.2 1 1 7079
7080 2 18.0 4.8 10.799999999999999 1 1 7080
7081 2 18.0 5.3999999999999995 2.4 1 1 7081
7082 2 18.0 5.3999999999999995 3.0 1 1 7082
7083 2 18.0 5.3999999999999995 3.5999999999999996 1 1 7083
7084 2 18.0 5.3999999999999995 4.2 1 1 7084
7085 2 18.0 5.3999999999999995 4.8 1 1 7085
7086 2 18.0 5.3999999999999995 5.3999999999999995 1 1 7086
7087 2 18.0 5.3999999999999995 6.0 1 1 7087
7088 2 18.0 5.3999999999999995 6.6 1 1 7088
7089 2 18.0 5.3999999999999995 7.199999999999999 1 1 7089
7090 2 18.0 5.3999999999999995 7.8 1 1 7090
7091 2 18.0 5.3999999999999995 8.4 1 1 7091
7092 2 18.0 5.3999999999999995 9.0 1 1 7092
7093 2 18.0 5.3999999999999995 9.6 1 1 7093
7094 2 18.0 5.3999999999999995 10.2 1 1 7094
7095 2 18.0 5.3999999999999995 10.799999999999999 1 1 7095
7096 2 18.0 6.0 2.4 1 1 7096
7097 2 18.0 6.0 3.0 1 1 7097
7098 2 18.0 6.0 3.5999999999999996 1 1 7098
7099 2 18.0 6.0 4.2 1 1 7099
7100 2 18.0 6.0 4.8 1 1 7100
7101 2 18.0 6.0 5.3999999999999995 1 1 7101
7102 2 18.0 6.0 6.6 1 1 7102
7103 2 18.0 6.0 7.199999999999999 1 1 7103
7104 2 18.0 6.0 7.8 1 1 7104
7105 2 18.0 6.0 8.4 1 1 7105
7106 2 18.0 6.0 9.0 1 1 7106
7107 2 18.0 6.0 9.6 1 1 7107
7108 2 18.0 6.0 10.2 1 1 7108
7109 2 18.0 6.0 10.799999999999999 1 1 7109
7110 2 18.0 6.6 3.0 1 1 7110
7111 2 18.0 6.6 4.2 1 1 7111
7112 2 18.0 6.6 4.8 1 1 7112
7113 2 18.0 6.6 5.3999999999999995 1 1 7113
7114 2 18.0 6.6 6.0 1 1 7114
7115 2 18.0 6.6 6.6 1 1 7115
7116 2 18.0 6.6 7.8 1 1 7116
7117 2 18.0 6.6 8.4 1 1 7117
7118 2 18.0 6.6 9.0 1 1 7118
7119 2 18.0 6.6 10.799999999999999 1 1 7119
7120 2 18.0 7.199999999999999 2.4 1 1 7120
7121 2 18.0 7.199999999999999 3.0 1 1 7121
7122 2 18.0 7.199999999999999 3.5999999999999996 1 1 7122
7123 2 18.0 7.199999999999999 4.2 1 1 7123
7124 2 18.0 7.199999999999999 4.8 1 1 7124
7125 2 18.0 7.199999999999999 5.3999999999999995 1 1 7125
7126 2 18.0 7.199999999999999 6.0 1 1 7126
7127 2 18.0 7.199999999999999 6.6 1 1 7127
7128 2 18.0 7.199999999999999 7.199999999999999 1 1 7128
7129 2 18.0 7.199999999999999 7.8 1 1 7129
7130 2 18.0 7.199999999999999 8.4 1 1 7130
7131 2 18.0 7.199999999999999 9.0 1 1 7131
7132 2 18.0 7.199999999999999 10.2 1 1 7132
7133 2 18.0 7.199999999999999 10.799999999999999 1 1 7133
7134 2 18.0 7.8 2.4 1 1 7134
7135 2 18.0 7.8 3.0 1 1 7135
7136 2 18.0 7.8 3.5999999999999996 1 1 7136
7137 2 18.0 7.8 4.2 1 1 7137
7138 2 18.0 7.8 4.8 1 1 7138
7139 2 18.0 7.8 5.3999999999999995 1 1 7139
7140 2 18.0 7.8 6.0 1 1 7140
7141 2 18.0 7.8 7.8 1 1 7141
7142 2 18.0 7.8 8.4 1 1 7142
7143 2 18.0 7.8 9.0 1 1 7143
7144 2 18.0 7.8 9.6 1 1 7144
7145 2 18.0 7.8 10.2 1 1 7145
7146 2 18.0 7.8 10.799999999999999 1 1 7146
7147 2 18.0 8.4 2.4 1 1 7147
7148 2 18.0 8.4 3.0 1 1 7148
7149 2 18.0 8.4 3.5999999999999996 1 1 7149
7150 2 18.0 8.4 4.2 1 1 7150
7151 2 18.0 8.4 4.8 1 1 7151
7152 2 18.0 8.4 5.3999999999999995 1 1 7152
7153 2 18.0 8.4 6.0 1 1 7153
7154 2 18.0 8.4 6.6 1 1 7154
7155 2 18.0 8.4 7.199999999999999 1 1 7155
7156 2 18.0 8.4 7.8 1 1 7156
7157 2 18.0 8.4 8.4 1 1 7157
7158 2 18.0 8.4 9.0 1 1 7158
7159 2 18.0 8.4 9.6 1 1 7159
7160 2 18.0 8.4 10.2 1 1 7160
7161 2 18.0 8.4 10.799999999999999 1 1 7161
7162 2 18.0 9.0 3.0 1 1 7162
7163 2 18.0 9.0 4.2 1 1 7163
7164 2 18.0 9.0 4.8 1 1 7164
7165 2 18.0 9.0 5.3999999999999995 1 1 7165
7166 2 18.0 9.0 6.0 1 1 7166
7167 2 18.0 9.0 6.6 1 1 7167
7168 2 18.0 9.0 7.199999999999999 1 1 7168
7169 2 18.0 9.0 7.8 1 1 7169
7170 2 18.0 9.0 8.4 1 1 7170
7171 2 18.0 9.0 9.0 1 1 7171
7172 2 18.0 9.0 9.6 1 1 7172
7173 2 18.0 9.0 10.2 1 1 7173
7174 2 18.0 9.6 4.2 1 1 7174
7175 2 18.0 9.6 4.8 1 1 7175
7176 2 18.0 9.6 5.3999999999999995 1 1 7176
7177 2 18.0 9.6 6.0 1 1 7177
7178 2 18.0 9.6 6.6 1 1 7178
7179 2 18.0 9.6 7.199999999999999 1 1 7179
7180 2 18.0 9.6 7.8 1 1 7180
7181 2 18.0 9.6 9.0 1 1 7181
7182 2 18.0 9.6 9.6 1 1 7182
7183 2 18.0 9.6 10.2 1 1 7183
7184 2 18.0 10.2 3.5999999999999996 1 1 7184
7185 2 18.0 10.2 4.2 1 1 7185
7186 2 18.0 10.2 4.8 1 1 7186
7187 2 18.0 10.2 5.3999999999999995 1 1 7187
7188 2 18.0 10.2 6.0 1 1 7188
7189 2 18.0 10.2 7.199999999999999 1 1 7189
7190 2 18.0 10.2 7.8 1 1 7190
7191 2 18.0 10.2 8.4 1 1 7191
7192 2 18.0 10.2 9.0 1 1 7192
7193 2 18.0 10.799999999999999 4.8 1 1 7193
7194 2 18.0 10.799999999999999 5.3999999999999995 1 1 7194
7195 2 18.0 10.799999999999999 6.0 1 1 7195
7196 2 18.0 10.799999999999999 6.6 1 1 7196
7197 2 18.0 10.799999999999999 7.199999999999999 1 1 7197
7198 2 18.0 10.799999999999999 8.4 1 1 7198
7199 2 18.599999999999998 2.4 5.3999999999999995 1 1 7199
7200 2 18.599999999999998 2.4 6.0 1 1 7200
7201 2 18.599999999999998 2.4 6.6 1 1 7201
7202 2 18.599999999999998 2.4 7.199999999999999 1 1 7202
7203 2 18.599999999999998 2.4 7.8 1 1 7203
7204 2 18.599999999999998 2.4 8.4 1 1 7204
7205 2 18.599999999999998 3.0 4.2 1 1 7205
7206 2 18.599999999999998 3.0 4.8 1 1 7206
7207 2 18.599999999999998 3.0 5.3999999999999995 1 1 7207
7208 2 18.599999999999998 3.0 6.0 1 1 7208
7209 2 18.599999999999998 3.0 6.6 1 1 7209
7210 2 18.599999999999998 3.0 7.199999999999999 1 1 7210
7211 2 18.599999999999998 3.0 7.8 1 1 7211
7212 2 18.599999999999998 3.0 8.4 1 1 7212
7213 2 18.599999999999998 3.0 9.0 1 1 7213
7214 2 18.599999999999998 3.5999999999999996 3.5999999999999996 1 1 7214
7215 2 18.599999999999998 3.5999999999999996 4.2 1 1 7215
7216 2 18.599999999999998 3.5999999999999996 4.8 1 1 7216
7217 2 18.599999999999998 3.5999999999999996 6.0 1 1 7217
7218 2 18.599999999999998 3.5999999999999996 6.6 1 1 7218
7219 2 18.599999999999998 3.5999999999999996 7.199999999999999 1 1 7219
7220 2 18.599999999999998 3.5999999999999996 7.8 1 1 7220
7221 2 18.599999999999998 3.5999999999999996 8.4 1 1 7221
7222 2 18.599999999999998 3.5999999999999996 9.0 1 1 7222
7223 2 18.599999999999998 3.5999999999999996 9.6 1 1 7223
7224 2 18.599999999999998 3.5999999999999996 10.2 1 1 7224
7225 2 18.599999999999998 4.2 3.5999999999999996 1 1 7225
7226 2 18.599999999999998 4.2 4.2 1 1 7226
7227 2 18.599999999999998 4.2 4.8 1 1 7227
7228 2 18.599999999999998 4.2 6.0 1 1 7228
7229 2 18.599999999999998 4.2 6.6 1 1 7229
7230 2 18.599999999999998 4.2 7.199999999999999 1 1 7230
7231 2 18.599999999999998 4.2 8.4 1 1 7231
7232 2 18.599999999999998 4.2 9.0 1 1 7232
7233 2 18.599999999999998 4.2 9.6 1 1 7233
7234 2 18.599999999999998 4.2 10.2 1 1 7234
7235 2 18.599999999999998 4.8 3.0 1 1 7235
7236 2 18.599999999999998 4.8 3.5999999999999996 1 1 7236
7237 2 18.599999999999998 4.8 4.2 1 1 7237
7238 2 18.599999999999998 4.8 4.8 1 1 7238
7239 2 18.599999999999998 4.8 5.3999999999999995 1 1 7239
7240 2 18.599999999999998 4.8 6.0 1 1 7240
7241 2 18.599999999999998 4.8 6.6 1 1 7241
7242 2 18.599999999999998 4.8 7.199999999999999 1 1 7242
7243 2 18.599999999999998 4.8 7.8 1 1 7243
7244 2 18.599999999999998 4.8 8.4 1 1 7244
7245 2 18.599999999999998 4.8 9.0 1 1 7245
7246 2 18.599999999999998 4.8 9.6 1 1 7246
7247 2 18.599999999999998 4.8 10.2 1 1 7247
7248 2 18.599999999999998 4.8 10.799999999999999 1 1 7248
7249 2 18.599999999999998 5.3999999999999995 2.4 1 1 7249
7250 2 18.599999999999998 5.3999999999999995 3.0 1 1 7250
7251 2 18.599999999999998 5.3999999999999995 3.5999999999999996 1 1 7251
7252 2 18.599999999999998 5.3999999999999995 4.2 1 1 7252
7253 2 18.599999999999998 5.3999999999999995 4.8 1 1 7253
7254 2 18.599999999999998 5.3999999999999995 5.3999999999999995 1 1 7254
7255 2 18.599999999999998 5.3999999999999995 7.199999999999999 1 1 7255
7256 2 18.599999999999998 5.3999999999999995 7.8 1 1 7256
7257 2 18.599999999999998 5.3999999999999995 8.4 1 1 7257
7258 2 18.599999999999998 5.3999999999999995 9.0 1 1 7258
7259 2 18.599999999999998 5.3999999999999995 9.6 1 1 7259
7260 2 18.599999999999998 5.3999999999999995 10.2 1 1 7260
7261 2 18.599999999999998 5.3999999999999995 10.799999999999999 1 1 7261
7262 2 18.599999999999998 6.0 2.4 1 1 7262
7263 2 18.599999999999998 6.0 3.0 1 1 7263
7264 2 18.599999999999998 6.0 3.5999999999999996 1 1 7264
7265 2 18.599999999999998 6.0 4.2 1 1 7265
7266 2 18.599999999999998 6.0 4.8 1 1 7266
7267 2 18.599999999999998 6.0 6.0 1 1 7267
7268 2 18.599999999999998 6.0 6.6 1 1 7268
7269 2 18.599999999999998 6.0 7.8 1 1 7269
7270 2 18.599999999999998 6.0 8.4 1 1 7270
7271 2 18.599999999999998 6.0 9.0 1 1 7271
7272 2 18.599999999999998 6.0 9.6 1 1 7272
7273 2 18.599999999999998 6.0 10.799999999999999 1 1 7273
7274 2 18.599999999999998 6.6 3.0 1 1 7274
7275 2 18.599999999999998 6.6 3.5999999999999996 1 1 7275
7276 2 18.599999999999998 6.6 4.2 1 1 7276
7277 2 18.599999999999998 6.6 4.8 1 1 7277
7278 2 18.599999999999998 6.6 5.3999999999999995 1 1 7278
7279 2 18.599999999999998 6.6 6.0 1 1 7279
7280 2 18.599999999999998 6.6 6.6 1 1 7280
7281 2 18.599999999999998 6.6 7.199999999999999 1 1 7281
7282 2 18.599999999999998 6.6 8.4 1 1 7282
7283 2 18.599999999999998 6.6 9.0 1 1 7283
7284 2 18.599999999999998 6.6 9.6 1 1 7284
7285 2 18.599999999999998 6.6 10.2 1 1 7285
7286 2 18.599999999999998 6.6 10.799999999999999 1 1 7286
7287 2 18.599999999999998 7.199999999999999 2.4 1 1 7287
7288 2 18.599999999999998 7.199999999999999 3.0 1 1 7288
7289 2 18.599999999999998 7.199999999999999 3.5999999999999996 1 1 7289
7290 2 18.599999999999998 7.199999999999999 4.2 1 1 7290
7291 2 18.599999999999998 7.199999999999999 5.3999999999999995 1 1 7291
7292 2 18.599999999999998 7.199999999999999 6.0 1 1 7292
7293 2 18.599999999999998 7.199999999999999 6.6 1 1 7293
7294 2 18.599999999999998 7.199999999999999 7.8 1 1 7294
7295 2 18.599999999999998 7.199999999999999 9.0 1 1 7295
7296 2 18.599999999999998 7.199999999999999 9.6 1 1 7296
7297 2 18.599999999999998 7.199999999999999 10.2 1 1 7297
7298 2 18.599999999999998 7.199999999999999 10.799999999999999 1 1 7298
7299 2 18.599999999999998 7.8 2.4 1 1 7299
7300 2 18.599999999999998 7.8 3.0 1 1 7300
7301 2 18.599999999999998 7.8 3.5999999999999996 1 1 7301
7302 2 18.599999999999998 7.8 4.2 1 1 7302
7303 2 18.599999999999998 7.8 4.8 1 1 7303
7304 2 18.599999999999998 7.8 5.3999999999999995 1 1 7304
7305 2 18.599999999999998 7.8 6.6 1 1 7305
7306 2 18.599999999999998 7.8 7.199999999999999 1 1 7306
7307 2 18.599999999999998 7.8 7.8 1 1 7307
7308 2 18.599999999999998 7.8 8.4 1 1 7308
7309 2 18.599999999999998 7.8 9.0 1 1 7309
7310 2 18.599999999999998 7.8 9.6 1 1 7310
7311 2 18.599999999999998 7.8 10.2 1 1 7311
7312 2 18.599999999999998 7.8 10.799999999999999 1 1 7312
7313 2 18.599999999999998 8.4 2.4 1 1 7313
7314 2 18.599999999999998 8.4 3.0 1 1 7314
7315 2 18.599999999999998 8.4 4.2 1 1 7315
7316 2 18.599999999999998 8.4 4.8 1 1 7316
7317 2 18.599999999999998 8.4 5.3999999999999995 1 1 7317
7318 2 18.599999999999998 8.4 6.0 1 1 7318
7319 2 18.599999999999998 8.4 7.199999999999999 1 1 7319
7320 2 18.599999999999998 8.4 7.8 1 1 7320
7321 2 18.599999999999998 8.4 8.4 1 1 7321
7322 2 18.599999999999998 8.4 9.0 1 1 7322
7323 2 18.599999999999998 8.4 9.6 1 1 7323
7324 2 18.599999999999998 8.4 10.2 1 1 7324
7325 2 18.599999999999998 8.4 10.799999999999999 1 1 7325
7326 2 18.599999999999998 9.0 3.0 1 1 7326
7327 2 18.599999999999998 9.0 3.5999999999999996 1 1 7327
7328 2 18.599999999999998 9.0 4.2 1 1 7328
7329 2 18.599999999999998 9.0 5.3999999999999995 1 1 7329
7330 2 18.599999999999998 9.0 6.0 1 1 7330
7331 2 18.599999999999998 9.0 6.6 1 1 7331
7332 2 18.599999999999998 9.0 7.199999999999999 1 1 7332
7333 2 18.599999999999998 9.0 7.8 1 1 7333
7334 2 18.599999999999998 9.0 8.4 1 1 7334
7335 2 18.599999999999998 9.0 9.0 1 1 7335
7336 2 18.599999999999998 9.0 9.6 1 1 7336
7337 2 18.599999999999998 9.0 10.2 1 1 7337
7338 2 18.599999999999998 9.6 3.5999999999999996 1 1 7338
7339 2 18.599999999999998 9.6 4.8 1 1 7339
7340 2 18.599999999999998 9.6 5.3999999999999995 1 1 7340
7341 2 18.599999999999998 9.6 6.0 1 1 7341
7342 2 18.599999999999998 9.6 6.6 1 1 7342
7343 2 18.599999999999998 9.6 7.199999999999999 1 1 7343
7344 2 18.599999999999998 9.6 7.8 1 1 7344
7345 2 18.599999999999998 9.6 8.4 1 1 7345
7346 2 18.599999999999998 9.6 9.0 1 1 7346
7347 2 18.599999999999998 9.6 9.6 1 1 7347
7348 2 18.599999999999998 10.2 3.5999999999999996 1 1 7348
7349 2 18.599999999999998 10.2 4.2 1 1 7349
7350 2 18.599999999999998 10.2 4.8 1 1 7350
7351 2 18.599999999999998 10.2 5.3999999999999995 1 1 7351
7352 2 18.599999999999998 10.2 6.0 1 1 7352
7353 2 18.599999999999998 10.2 6.6 1 1 7353
7354 2 18.599999999999998 10.2 7.199999999999999 1 1 7354
7355 2 18.599999999999998 10.2 7.8 1 1 7355
7356 2 18.599999999999998 10.2 8.4 1 1 7356
7357 2 18.599999999999998 10.2 9.0 1 1 7357
7358 2 18.599999999999998 10.2 9.6 1 1 7358
7359 2 18.599999999999998 10.799999999999999 4.8 1 1 7359
7360 2 18.599999999999998 10.799999999999999 5.3999999999999995 1 1 7360
7361 2 18.599999999999998 10.799999999999999 6.0 1 1 7361
7362 2 18.599999999999998 10.799999999999999 6.6 1 1 7362
7363 2 18.599999999999998 10.799999999999999 7.199999999999999 1 1 7363
7364 2 18.599999999999998 10.799999999999999 7.8 1 1 7364
7365 2 18.599999999999998 10.799999999999999 8.4 1 1 7365
7366 2 19.2 2.4 5.3999999999999995 1 1 7366
7367 2 19.2 2.4 6.0 1 1 7367
7368 2 19.2 2.4 7.199999999999999 1 1 7368
7369 2 19.2 2.4 7.8 1 1 7369
7370 2 19.2 2.4 8.4 1 1 7370
7371 2 19.2 3.0 4.2 1 1 7371
7372 2 19.2 3.0 4.8 1 1 7372
7373 2 19.2 3.0 5.3999999999999995 1 1 7373
7374 2 19.2 3.0 6.0 1 1 7374
7375 2 19.2 3.0 6.6 1 1 7375
7376 2 19.2 3.0 7.199999999999999 1 1 7376
7377 2 19.2 3.0 7.8 1 1 7377
7378 2 19.2 3.0 8.4 1 1 7378
7379 2 19.2 3.0 9.0 1 1 7379
7380 2 19.2 3.5999999999999996 3.5999999999999996 1 1 7380
7381 2 19.2 3.5999999999999996 4.2 1 1 7381
7382 2 19.2 3.5999999999999996 4.8 1 1 7382
7383 2 19.2 3.5999999999999996 6.0 1 1 7383
7384 2 19.2 3.5999999999999996 6.6 1 1 7384
7385 2 19.2 3.5999999999999996 8.4 1 1 7385
7386 2 19.2 3.5999999999999996 9.0 1 1 7386
7387 2 19.2 3.5999999999999996 9.6 1 1 7387
7388 2 19.2 3.5999999999999996 10.2 1 1 7388
7389 2 19.2 4.2 3.0 1 1 7389
7390 2 19.2 4.2 3.5999999999999996 1 1 7390
7391 2 19.2 4.2 4.2 1 1 7391
7392 2 19.2 4.2 4.8 1 1 7392
7393 2 19.2 4.2 5.3999999999999995 1 1 7393
7394 2 19.2 4.2 6.0 1 1 7394
7395 2 19.2 4.2 6.6 1 1 7395
7396 2 19.2 4.2 7.199999999999999 1 1 7396
7397 2 19.2 4.2 7.8 1 1 7397
7398 2 19.2 4.2 8.4 1 1 7398
7399 2 19.2 4.2 9.6 1 1 7399
7400 2 19.2 4.2 10.2 1 1 7400
7401 2 19.2 4.8 3.0 1 1 7401
7402 2 19.2 4.8 3.5999999999999996 1 1 7402
7403 2 19.2 4.8 4.2 1 1 7403
7404 2 19.2 4.8 6.0 1 1 7404
7405 2 19.2 4.8 6.6 1 1 7405
7406 2 19.2 4.8 7.199999999999999 1 1 7406
7407 2 19.2 4.8 7.8 1 1 7407
7408 2 19.2 4.8 8.4 1 1 7408
7409 2 19.2 4.8 9.0 1 1 7409
7410 2 19.2 4.8 9.6 1 1 7410
7411 2 19.2 4.8 10.2 1 1 7411
7412 2 19.2 4.8 10.799999999999999 1 1 7412
7413 2 19.2 5.3999999999999995 2.4 1 1 7413
7414 2 19.2 5.3999999999999995 3.0 1 1 7414
7415 2 19.2 5.3999999999999995 3.5999999999999996 1 1 7415
7416 2 19.2 5.3999999999999995 4.2 1 1 7416
7417 2 19.2 5.3999999999999995 5.3999999999999995 1 1 7417
7418 2 19.2 5.3999999999999995 6.0 1 1 7418
7419 2 19.2 5.3999999999999995 6.6 1 1 7419
7420 2 19.2 5.3999999999999995 7.199999999999999 1 1 7420
7421 2 19.2 5.3999999999999995 7.8 1 1 7421
7422 2 19.2 5.3999999999999995 9.0 1 1 7422
7423 2 19.2 5.3999999999999995 9.6 1 1 7423
7424 2 19.2 5.3999999999999995 10.799999999999999 1 1 7424
7425 2 19.2 6.0 2.4 1 1 7425
7426 2 19.2 6.0 3.0 1 1 7426
7427 2 19.2 6.0 3.5999999999999996 1 1 7427
7428 2 19.2 6.0 4.2 1 1 7428
7429 2 19.2 6.0 4.8 1 1 7429
7430 2 19.2 6.0 5.3999999999999995 1 1 7430
7431 2 19.2 6.0 6.0 1 1 7431
7432 2 19.2 6.0 6.6 1 1 7432
7433 2 19.2 6.0 7.199999999999999 1 1 7433
7434 2 19.2 6.0 7.8 1 1 7434
7435 2 19.2 6.0 8.4 1 1 7435
7436 2 19.2 6.0 9.6 1 1 7436
7437 2 19.2 6.0 10.799999999999999 1 1 7437
7438 2 19.2 6.6 3.0 1 1 7438
7439 2 19.2 6.6 3.5999999999999996 1 1 7439
7440 2 19.2 6.6 4.2 1 1 7440
7441 2 19.2 6.6 4.8 1 1 7441
7442 2 19.2 6.6 5.3999999999999995 1 1 7442
7443 2 19.2 6.6 6.0 1 1 7443
7444 2 19.2 6.6 6.6 1 1 7444
7445 2 19.2 6.6 7.199999999999999 1 1 7445
7446 2 19.2 6.6 8.4 1 1 7446
7447 2 19.2 6.6 9.0 1 1 7447
7448 2 19.2 6.6 9.6 1 1 7448
7449 2 19.2 6.6 10.2 1 1 7449
7450 2 19.2 6.6 10.799999999999999 1 1 7450
7451 2 19.2 7.199999999999999 2.4 1 1 7451
7452 2 19.2 7.199999999999999 3.0 1 1 7452
7453 2 19.2 7.199999999999999 3.5999999999999996 1 1 7453
7454 2 19.2 7.199999999999999 4.2 1 1 7454
7455 2 19.2 7.199999999999999 4.8 1 1 7455
7456 2 19.2 7.199999999999999 5.3999999999999995 1 1 7456
7457 2 19.2 7.199999999999999 6.6 1 1 7457
7458 2 19.2 7.199999999999999 7.199999999999999 1 1 7458
7459 2 19.2 7.199999999999999 7.8 1 1 7459
7460 2 19.2 7.199999999999999 8.4 1 1 7460
7461 2 19.2 7.199999999999999 9.6 1 1 7461
7462 2 19.2 7.199999999999999 10.2 1 1 7462
7463 2 19.2 7.199999999999999 10.799999999999999 1 1 7463
7464 2 19.2 7.8 2.4 1 1 7464
7465 2 19.2 7.8 3.0 1 1 7465
7466 2 19.2 7.8 3.5999999999999996 1 1 7466
7467 2 19.2 7.8 4.2 1 1 7467
7468 2 19.2 7.8 4.8 1 1 7468
7469 2 19.2 7.8 7.199999999999999 1 1 7469
7470 2 19.2 7.8 7.8 1 1 7470
7471 2 19.2 7.8 8.4 1 1 7471
7472 2 19.2 7.8 9.0 1 1 7472
7473 2 19.2 7.8 9.6 1 1 7473
7474 2 19.2 7.8 10.2 1 1 7474
7475 2 19.2 7.8 10.799999999999999 1 1 7475
7476 2 19.2 8.4 2.4 1 1 7476
7477 2 19.2 8.4 3.5999999999999996 1 1 7477
7478 2 19.2 8.4 4.2 1 1 7478
7479 2 19.2 8.4 4.8 1 1 7479
7480 2 19.2 8.4 6.6 1 1 7480
7481 2 19.2 8.4 7.8 1 1 7481
7482 2 19.2 8.4 8.4 1 1 7482
7483 2 19.2 8.4 9.0 1 1 7483
7484 2 19.2 8.4 9.6 1 1 7484
7485 2 19.2 8.4 10.2 1 1 7485
7486 2 19.2 8.4 10.799999999999999 1 1 7486
7487 2 19.2 9.0 3.0 1 1 7487
7488 2 19.2 9.0 4.2 1 1 7488
7489 2 19.2 9.0 4.8 1 1 7489
7490 2 19.2 9.0 6.6 1 1 7490
7491 2 19.2 9.0 7.199999999999999 1 1 7491
7492 2 19.2 9.0 7.8 1 1 7492
7493 2 19.2 9.0 8.4 1 1 7493
7494 2 19.2 9.0 9.0 1 1 7494
7495 2 19.2 9.0 10.2 1 1 7495
7496 2 19.2 9.6 3.5999999999999996 1 1 7496
7497 2 19.2 9.6 4.2 1 1 7497
7498 2 19.2 9.6 4.8 1 1 7498
7499 2 19.2 9.6 5.3999999999999995 1 1 7499
7500 2 19.2 9.6 6.0 1 1 7500
7501 2 19.2 9.6 6.6 1 1 7501
7502 2 19.2 9.6 7.199999999999999 1 1 7502
7503 2 19.2 9.6 7.8 1 1 7503
7504 2 19.2 9.6 8.4 1 1 7504
7505 2 19.2 9.6 9.0 1 1 7505
7506 2 19.2 9.6 9.6 1 1 7506
7507 2 19.2 10.2 3.5999999999999996 1 1 7507
7508 2 19.2 10.2 4.2 1 1 7508
7509 2 19.2 10.2 4.8 1 1 7509
7510 2 19.2 10.2 6.6 1 1 7510
7511 2 19.2 10.2 7.199999999999999 1 1 7511
7512 2 19.2 10.2 7.8 1 1 7512
7513 2 19.2 10.2 8.4 1 1 7513
7514 2 19.2 10.2 9.0 1 1 7514
7515 2 19.2 10.2 9.6 1 1 7515
7516 2 19.2 10.799999999999999 4.8 1 1 7516
7517 2 19.2 10.799999999999999 5.3999999999999995 1 1 7517
7518 2 19.2 10.799999999999999 6.0 1 1 7518
7519 2 19.2 10.799999999999999 6.6 1 1 7519
7520 2 19.2 10.799999999999999 7.8 1 1 7520
7521 2 19.2 10.799999999999999 8.4 1 1 7521
7522 2 19.8 2.4 5.3999999999999995 1 1 7522
7523 2 19.8 2.4 6.0 1 1 7523
7524 2 19.8 2.4 6.6 1 1 7524
7525 2 19.8 2.4 7.199999999999999 1 1 7525
7526 2 19.8 2.4 7.8 1 1 7526
7527 2 19.8 2.4 8.4 1 1 7527
7528 2 19.8 3.0 6.0 1 1 7528
7529 2 19.8 3.0 6.6 1 1 7529
7530 2 19.8 3.0 7.199999999999999 1 1 7530
7531 2 19.8 3.0 7.8 1 1 7531
7532 2 19.8 3.0 8.4 1 1 7532
7533 2 19.8 3.0 9.0 1 1 7533
7534 2 19.8 3.5999999999999996 3.5999999999999996 1 1 7534
7535 2 19.8 3.5999999999999996 4.2 1 1 7535
7536 2 19.8 3.5999999999999996 4.8 1 1 7536
7537 2 19.8 3.5999999999999996 5.3999999999999995 1 1 7537
7538 2 19.8 3.5999999999999996 6.0 1 1 7538
7539 2 19.8 3.5999999999999996 7.8 1 1 7539
7540 2 19.8 3.5999999999999996 8.4 1 1 7540
7541 2 19.8 3.5999999999999996 9.0 1 1 7541
7542 2 19.8 3.5999999999999996 9.6 1 1 7542
7543 2 19.8 3.5999999999999996 10.2 1 1 7543
7544 2 19.8 4.2 3.0 1 1 7544
7545 2 19.8 4.2 3.5999999999999996 1 1 7545
7546 2 19.8 4.2 4.2 1 1 7546
7547 2 19.8 4.2 4.8 1 1 7547
7548 2 19.8 4.2 5.3999999999999995 1 1 7548
7549 2 19.8 4.2 6.0 1 1 7549
7550 2 19.8 4.2 6.6 1 1 7550
7551 2 19.8 4.2 7.199999999999999 1 1 7551
7552 2 19.8 4.2 7.8 1 1 7552
7553 2 19.8 4.2 8.4 1 1 7553
7554 2 19.8 4.2 9.0 1 1 7554
7555 2 19.8 4.2 9.6 1 1 7555
7556 2 19.8 4.8 3.0 1 1 7556
7557 2 19.8 4.8 3.5999999999999996 1 1 7557
7558 2 19.8 4.8 4.2 1 1 7558
7559 2 19.8 4.8 5.3999999999999995 1 1 7559
7560 2 19.8 4.8 6.0 1 1 7560
7561 2 19.8 4.8 6.6 1 1 7561
7562 2 19.8 4.8 7.199999999999999 1 1 7562
7563 2 19.8 4.8 7.8 1 1 7563
7564 2 19.8 4.8 8.4 1 1 7564
7565 2 19.8 4.8 9.0 1 1 7565
7566 2 19.8 4.8 9.6 1 1 7566
7567 2 19.8 4.8 10.2 1 1 7567
7568 2 19.8 4.8 10.799999999999999 1 1 7568
7569 2 19.8 5.3999999999999995 3.5999999999999996 1 1 7569
7570 2 19.8 5.3999999999999995 4.2 1 1 7570
7571 2 19.8 5.3999999999999995 4.8 1 1 7571
7572 2 19.8 5.3999999999999995 5.3999999999999995 1 1 7572
7573 2 19.8 5.3999999999999995 6.6 1 1 7573
7574 2 19.8 5.3999999999999995 7.199999999999999 1 1 7574
7575 2 19.8 5.3999999999999995 7.8 1 1 7575
7576 2 19.8 5.3999999999999995 8.4 1 1 7576
7577 2 19.8 5.3999999999999995 9.0 1 1 7577
7578 2 19.8 5.3999999999999995 9.6 1 1 7578
7579 2 19.8 5.3999999999999995 10.2 1 1 7579
7580 2 19.8 5.3999999999999995 10.799999999999999 1 1 7580
7581 2 19.8 6.0 2.4 1 1 7581
7582 2 19.8 6.0 3.0 1 1 7582
7583 2 19.8 6.0 3.5999999999999996 1 1 7583
7584 2 19.8 6.0 4.2 1 1 7584
7585 2 19.8 6.0 4.8 1 1 7585
7586 2 19.8 6.0 5.3999999999999995 1 1 7586
7587 2 19.8 6.0 6.0 1 1 7587
7588 2 19.8 6.0 7.199999999999999 1 1 7588
7589 2 19.8 6.0 7.8 1 1 7589
7590 2 19.8 6.0 8.4 1 1 7590
7591 2 19.8 6.0 9.0 1 1 7591
7592 2 19.8 6.0 9.6 1 1 7592
7593 2 19.8 6.0 10.2 1 1 7593
7594 2 19.8 6.0 10.799999999999999 1 1 7594
7595 2 19.8 6.6 3.0 1 1 7595
7596 2 19.8 6.6 3.5999999999999996 1 1 7596
7597 2 19.8 6.6 4.8 1 1 7597
7598 2 19.8 6.6 5.3999999999999995 1 1 7598
7599 2 19.8 6.6 6.0 1 1 7599
7600 2 19.8 6.6 6.6 1 1 7600
7601 2 19.8 6.6 7.199999999999999 1 1 7601
7602 2 19.8 6.6 7.8 1 1 7602
7603 2 19.8 6.6 8.4 1 1 7603
7604 2 19.8 6.6 9.0 1 1 7604
7605 2 19.8 6.6 9.6 1 1 7605
7606 2 19.8 6.6 10.2 1 1 7606
7607 2 19.8 7.199999999999999 2.4 1 1 7607
7608 2 19.8 7.199999999999999 3.0 1 1 7608
7609 2 19.8 7.199999999999999 4.8 1 1 7609
7610 2 19.8 7.199999999999999 5.3999999999999995 1 1 7610
7611 2 19.8 7.199999999999999 6.0 1 1 7611
7612 2 19.8 7.199999999999999 6.6 1 1 7612
7613 2 19.8 7.199999999999999 7.199999999999999 1 1 7613
7614 2 19.8 7.199999999999999 7.8 1 1 7614
7615 2 19.8 7.199999999999999 8.4 1 1 7615
7616 2 19.8 7.199999999999999 9.0 1 1 7616
7617 2 19.8 7.199999999999999 9.6 1 1 7617
7618 2 19.8 7.199999999999999 10.799999999999999 1 1 7618
7619 2 19.8 7.8 3.0 1 1 7619
7620 2 19.8 7.8 3.5999999999999996 1 1 7620
7621 2 19.8 7.8 4.2 1 1 7621
7622 2 19.8 7.8 4.8 1 1 7622
7623 2 19.8 7.8 5.3999999999999995 1 1 7623
7624 2 19.8 7.8 6.6 1 1 7624
7625 2 19.8 7.8 7.199999999999999 1 1 7625
7626 2 19.8 7.8 7.8 1 1 7626
7627 2 19.8 7.8 8.4 1 1 7627
7628 2 19.8 7.8 9.0 1 1 7628
7629 2 19.8 7.8 9.6 1 1 7629
7630 2 19.8 7.8 10.2 1 1 7630
7631 2 19.8 7.8 10.799999999999999 1 1 7631
7632 2 19.8 8.4 2.4 1 1 7632
7633 2 19.8 8.4 3.0 1 1 7633
7634 2 19.8 8.4 3.5999999999999996 1 1 7634
7635 2 19.8 8.4 4.2 1 1 7635
7636 2 19.8 8.4 5.3999999999999995 1 1 7636
7637 2 19.8 8.4 6.0 1 1 7637
7638 2 19.8 8.4 6.6 1 1 7638
7639 2 19.8 8.4 7.199999999999999 1 1 7639
7640 2 19.8 8.4 7.8 1 1 7640
7641 2 19.8 8.4 9.0 1 1 7641
7642 2 19.8 8.4 9.6 1 1 7642
7643 2 19.8 8.4 10.2 1 1 7643
7644 2 19.8 8.4 10.799999999999999 1 1 7644
7645 2 19.8 9.0 3.0 1 1 7645
7646 2 19.8 9.0 3.5999999999999996 1 1 7646
7647 2 19.8 9.0 4.2 1 1 7647
7648 2 19.8 9.0 4.8 1 1 7648
7649 2 19.8 9.0 5.3999999999999995 1 1 7649
7650 2 19.8 9.0 6.0 1 1 7650
7651 2 19.8 9.0 6.6 1 1 7651
7652 2 19.8 9.0 7.199999999999999 1 1 7652
7653 2 19.8 9.0 7.8 1 1 7653
7654 2 19.8 9.0 8.4 1 1 7654
7655 2 19.8 9.0 9.0 1 1 7655
7656 2 19.8 9.0 9.6 1 1 7656
7657 2 19.8 9.0 10.2 1 1 7657
7658 2 19.8 9.6 3.5999999999999996 1 1 7658
7659 2 19.8 9.6 4.8 1 1 7659
7660 2 19.8 9.6 5.3999999999999995 1 1 7660
7661 2 19.8 9.6 6.6 1 1 7661
7662 2 19.8 9.6 9.0 1 1 7662
7663 2 19.8 9.6 9.6 1 1 7663
7664 2 19.8 9.6 10.2 1 1 7664
7665 2 19.8 10.2 3.5999999999999996 1 1 7665
7666 2 19.8 10.2 4.2 1 1 7666
7667 2 19.8 10.2 4.8 1 1 7667
7668 2 19.8 10.2 6.0 1 1 7668
7669 2 19.8 10.2 6.6 1 1 7669
7670 2 19.8 10.2 7.199999999999999 1 1 7670
7671 2 19.8 10.2 7.8 1 1 7671
7672 2 19.8 10.2 9.0 1 1 7672
7673 2 19.8 10.2 9.6 1 1 7673
7674 2 19.8 10.799999999999999 4.8 1 1 7674
7675 2 19.8 10.799999999999999 5.3999999999999995 1 1 7675
7676 2 19.8 10.799999999999999 6.0 1 1 7676
7677 2 19.8 10.799999999999999 7.199999999999999 1 1 7677
7678 2 19.8 10.799999999999999 7.8 1 1 7678
7679 2 19.8 10.799999999999999 8.4 1 1 7679
7680 2 20.4 2.4 6.0 1 1 7680
7681 2 20.4 2.4 6.6 1 1 7681
7682 2 20.4 2.4 7.199999999999999 1 1 7682
7683 2 20.4 2.4 7.8 1 1 7683
7684 2 20.4 2.4 8.4 1 1 7684
7685 2 20.4 3.0 4.2 1 1 7685
7686 2 20.4 3.0 4.8 1 1 7686
7687 2 20.4 3.0 5.3999999999999995 1 1 7687
7688 2 20.4 3.0 6.0 1 1 7688
7689 2 20.4 3.0 6.6 1 1 7689
7690 2 20.4 3.0 7.199999999999999 1 1 7690
7691 2 20.4 3.0 8.4 1 1 7691
7692 2 20.4 3.0 9.0 1 1 7692
7693 2 20.4 3.5999999999999996 3.5999999999999996 1 1 7693
7694 2 20.4 3.5999999999999996 4.2 1 1 7694
7695 2 20.4 3.5999999999999996 4.8 1 1 7695
7696 2 20.4 3.5999999999999996 5.3999999999999995 1 1 7696
7697 2 20.4 3.5999999999999996 6.0 1 1 7697
7698 2 20.4 3.5999999999999996 6.6 1 1 7698
7699 2 20.4 3.5999999999999996 7.199999999999999 1 1 7699
7700 2 20.4 3.5999999999999996 7.8 1 1 7700
7701 2 20.4 3.5999999999999996 8.4 1 1 7701
7702 2 20.4 3.5999999999999996 10.2 1 1 7702
7703 2 20.4 4.2 3.0 1 1 7703
7704 2 20.4 4.2 4.2 1 1 7704
7705 2 20.4 4.2 4.8 1 1 7705
7706 2 20.4 4.2 5.3999999999999995 1 1 7706
7707 2 20.4 4.2 6.6 1 1 7707
7708 2 20.4 4.2 7.199999999999999 1 1 7708
7709 2 20.4 4.2 7.8 1 1 7709
7710 2 20.4 4.2 8.4 1 1 7710
7711 2 20.51906490832274 4.079047919899917 9.352625502677503 1 1 7711
7712 2 20.4 4.2 10.2 1 1 7712
7713 2 20.4 4.8 3.0 1 1 7713
7714 2 20.4 4.8 3.5999999999999996 1 1 7714
7715 2 20.4 4.8 4.8 1 1 7715
7716 2 20.4 4.8 5.3999999999999995 1 1 7716
7717 2 20.4 4.8 6.0 1 1 7717
7718 2 20.4 4.8 6.6 1 1 7718
7719 2 20.4 4.8 7.199999999999999 1 1 7719
7720 2 20.4 4.8 9.0 1 1 7720
7721 2 20.4 4.8 9.6 1 1 7721
7722 2 20.4 4.8 10.2 1 1 7722
7723 2 20.4 5.3999999999999995 2.4 1 1 7723
7724 2 20.4 5.3999999999999995 3.0 1 1 7724
7725 2 20.4 5.3999999999999995 3.5999999999999996 1 1 7725
7726 2 20.4 5.3999999999999995 4.2 1 1 7726
7727 2 20.4 5.3999999999999995 4.8 1 1 7727
7728 2 20.4 5.3999999999999995 6.0 1 1 7728
7729 2 20.4 5.3999999999999995 6.6 1 1 7729
7730 2 20.4 5.3999999999999995 7.199999999999999 1 1 7730
7731 2 20.4 5.3999999999999995 7.8 1 1 7731
7732 2 20.4 5.3999999999999995 8.4 1 1 7732
7733 2 20.4 5.3999999999999995 9.0 1 1 7733
7734 2 20.4 5.3999999999999995 9.6 1 1 7734
7735 2 20.4 5.3999999999999995 10.2 1 1 7735
7736 2 20.4 5.3999999999999995 10.799999999999999 1 1 7736
7737 2 20.4 6.0 2.4 1 1 7737
7738 2 20.4 6.0 3.0 1 1 7738
7739 2 20.4 6.0 3.5999999999999996 1 1 7739
7740 2 20.4 6.0 4.2 1 1 7740
7741 2 20.4 6.0 4.8 1 1 7741
7742 2 20.4 6.0 5.3999999999999995 1 1 7742
7743 2 20.4 6.0 6.6 1 1 7743
7744 2 20.4 6.0 7.8 1 1 7744
7745 2 20.4 6.0 9.6 1 1 7745
7746 2 20.4 6.0 10.2 1 1 7746
7747 2 20.4 6.0 10.799999999999999 1 1 7747
7748 2 20.4 6.6 2.4 1 1 7748
7749 2 20.4 6.6 3.0 1 1 7749
7750 2 20.4 6.6 3.5999999999999996 1 1 7750
7751 2 20.4 6.6 4.2 1 1 7751
7752 2 20.4 6.6 4.8 1 1 7752
7753 2 20.4 6.6 5.3999999999999995 1 1 7753
7754 2 20.4 6.6 6.6 1 1 7754
7755 2 20.4 6.6 7.199999999999999 1 1 7755
7756 2 20.4 6.6 8.4 1 1 7756
7757 2 20.4 6.6 9.0 1 1 7757
7758 2 20.4 6.6 9.6 1 1 7758
7759 2 20.4 6.6 10.2 1 1 7759
7760 2 20.4 6.6 10.799999999999999 1 1 7760
7761 2 20.4 7.199999999999999 2.4 1 1 7761
7762 2 20.4 7.199999999999999 3.0 1 1 7762
7763 2 20.4 7.199999999999999 3.5999999999999996 1 1 7763
7764 2 20.4 7.199999999999999 4.2 1 1 7764
7765 2 20.4 7.199999999999999 4.8 1 1 7765
7766 2 20.4 7.199999999999999 5.3999999999999995 1 1 7766
7767 2 20.4 7.199999999999999 6.0 1 1 7767
7768 2 20.4 7.199999999999999 6.6 1 1 7768
7769 2 20.4 7.199999999999999 7.199999999999999 1 1 7769
7770 2 20.4 7.199999999999999 7.8 1 1 7770
7771 2 20.4 7.199999999999999 8.4 1 1 7771
7772 2 20.4 7.199999999999999 9.0 1 1 7772
7773 2 20.4 7.199999999999999 9.6 1 1 7773
7774 2 20.4 7.199999999999999 10.2 1 1 7774
7775 2 20.4 7.199999999999999 10.799999999999999 1 1 7775
7776 2 20.4 7.8 2.4 1 1 7776
7777 2 20.4 7.8 3.0 1 1 7777
7778 2 20.4 7.8 4.2 1 1 7778
7779 2 20.4 7.8 4.8 1 1 7779
7780 2 20.4 7.8 5.3999999999999995 1 1 7780
7781 2 20.4 7.8 6.0 1 1 7781
7782 2 20.4 7.8 6.6 1 1 7782
7783 2 20.4 7.8 7.199999999999999 1 1 7783
7784 2 20.4 7.8 7.8 1 1 7784
7785 2 20.4 7.8 8.4 1 1 7785
7786 2 20.4 7.8 9.0 1 1 7786
7787 2 20.4 7.8 9.6 1 1 7787
7788 2 20.4 7.8 10.2 1 1 7788
7789 2 20.4 7.8 10.799999999999999 1 1 7789
7790 2 20.4 8.4 2.4 1 1 7790
7791 2 20.4 8.4 3.0 1 1 7791
7792 2 20.4 8.4 3.5999999999999996 1 1 7792
7793 2 20.4 8.4 4.2 1 1 7793
7794 2 20.4 8.4 4.8 1 1 7794
7795 2 20.4 8.4 5.3999999999999995 1 1 7795
7796 2 20.4 8.4 6.0 1 1 7796
7797 2 20.4 8.4 7.199999999999999 1 1 7797
7798 2 20.4 8.4 7.8 1 1 7798
7799 2 20.4 8.4 9.0 1 1 7799
7800 2 20.4 8.4 9.6 1 1 7800
7801 2 20.4 8.4 10.2 1 1 7801
7802 2 20.4 8.4 10.799999999999999 1 1 7802
7803 2 20.4 9.0 3.0 1 1 7803
7804 2 20.4 9.0 4.2 1 1 7804
7805 2 20.4 9.0 4.8 1 1 7805
7806 2 20.4 9.0 5.3999999999999995 1 1 7806
7807 2 20.4 9.0 6.0 1 1 7807
7808 2 20.4 9.0 6.6 1 1 7808
7809 2 20.4 9.0 7.8 1 1 7809
7810 2 20.4 9.0 8.4 1 1 7810
7811 2 20.4 9.0 9.6 1 1 7811
7812 2 20.4 9.0 10.2 1 1 7812
7813 2 20.4 9.6 3.5999999999999996 1 1 7813
7814 2 20.4 9.6 4.2 1 1 7814
7815 2 20.4 9.6 4.8 1 1 7815
7816 2 20.4 9.6 5.3999999999999995 1 1 7816
7817 2 20.4 9.6 6.0 1 1 7817
7818 2 20.4 9.6 7.199999999999999 1 1 7818
7819 2 20.4 9.6 7.8 1 1 7819
7820 2 20.4 9.6 8.4 1 1 7820
7821 2 20.4 9.6 9.0 1 1 7821
7822 2 20.4 9.6 9.6 1 1 7822
7823 2 20.4 9.6 10.2 1 1 7823
7824 2 20.4 10.2 3.5999999999999996 1 1 7824
7825 2 20.4 10.2 4.8 1 1 7825
7826 2 20.4 10.2 5.3999999999999995 1 1 7826
7827 2 20.4 10.2 6.0 1 1 7827
7828 2 20.4 10.2 7.199999999999999 1 1 7828
7829 2 20.4 10.2 7.8 1 1 7829
7830 2 20.4 10.2 9.6 1 1 7830
7831 2 20.4 10.799999999999999 5.3999999999999995 1 1 7831
7832 2 20.4 10.799999999999999 6.0 1 1 7832
7833 2 20.4 10.799999999999999 6.6 1 1 7833
7834 2 20.4 10.799999999999999 7.199999999999999 1 1 7834
7835 2 20.4 10.799999999999999 7.8 1 1 7835
7836 2 21.0 2.4 5.3999999999999995 1 1 7836
7837 2 21.0 2.4 6.0 1 1 7837
7838 2 21.0 2.4 6.6 1 1 7838
7839 2 21.0 2.4 7.199999999999999 1 1 7839
7840 2 21.0 2.4 7.8 1 1 7840
7841 2 21.0 2.4 8.4 1 1 7841
7842 2 21.11906490832274 2.879047919899917 4.552625502677499 1 1 7842
7843 2 21.0 3.0 5.3999999999999995 1 1 7843
7844 2 21.0 3.0 6.0 1 1 7844
7845 2 21.0 3.0 6.6 1 1 7845
7846 2 21.0 3.0 7.199999999999999 1 1 7846
7847 2 21.0 3.0 7.8 1 1 7847
7848 2 21.0 3.0 8.4 1 1 7848
7849 2 21.0 3.0 9.0 1 1 7849
7850 2 21.0 3.5999999999999996 3.5999999999999996 1 1 7850
7851 2 21.0 3.5999999999999996 4.2 1 1 7851
7852 2 21.0 3.5999999999999996 4.8 1 1 7852
7853 2 21.0 3.5999999999999996 5.3999999999999995 1 1 7853
7854 2 21.0 3.5999999999999996 6.0 1 1 7854
7855 2 21.0 3.5999999999999996 6.6 1 1 7855
7856 2 21.0 3.5999999999999996 7.199999999999999 1 1 7856
7857 2 21.0 3.5999999999999996 7.8 1 1 7857
7858 2 21.0 3.5999999999999996 8.4 1 1 7858
7859 2 21.0 3.5999999999999996 9.0 1 1 7859
7860 2 21.0 3.5999999999999996 9.6 1 1 7860
7861 2 21.0 3.5999999999999996 10.2 1 1 7861
7862 2 21.0 4.2 3.0 1 1 7862
7863 2 21.0 4.2 3.5999999999999996 1 1 7863
7864 2 21.0 4.2 4.2 1 1 7864
7865 2 21.0 4.2 4.8 1 1 7865
7866 2 21.0 4.2 5.3999999999999995 1 1 7866
7867 2 21.0 4.2 6.0 1 1 7867
7868 2 21.0 4.2 6.6 1 1 7868
7869 2 21.0 4.2 7.199999999999999 1 1 7869
7870 2 21.0 4.2 7.8 1 1 7870
7871 2 21.0 4.2 8.4 1 1 7871
7872 2 21.0 4.2 9.0 1 1 7872
7873 2 21.0 4.2 10.2 1 1 7873
7874 2 21.0 4.8 3.0 1 1 7874
7875 2 21.0 4.8 3.5999999999999996 1 1 7875
7876 2 21.0 4.8 4.8 1 1 7876
7877 2 21.0 4.8 5.3999999999999995 1 1 7877
7878 2 21.0 4.8 6.0 1 1 7878
7879 2 21.0 4.8 6.6 1 1 7879
7880 2 21.0 4.8 7.199999999999999 1 1 7880
7881 2 21.0 4.8 8.4 1 1 7881
7882 2 21.0 4.8 9.0 1 1 7882
7883 2 21.0 4.8 9.6 1 1 7883
7884 2 21.0 4.8 10.2 1 1 7884
7885 2 21.0 4.8 10.799999999999999 1 1 7885
7886 2 21.0 5.3999999999999995 2.4 1 1 7886
7887 2 21.0 5.3999999999999995 3.0 1 1 7887
7888 2 21.0 5.3999999999999995 3.5999999999999996 1 1 7888
7889 2 21.0 5.3999999999999995 4.8 1 1 7889
7890 2 21.0 5.3999999999999995 5.3999999999999995 1 1 7890
7891 2 21.0 5.3999999999999995 6.0 1 1 7891
7892 2 21.0 5.3999999999999995 6.6 1 1 7892
7893 2 21.0 5.3999999999999995 7.199999999999999 1 1 7893
7894 2 21.0 5.3999999999999995 7.8 1 1 7894
7895 2 21.0 5.3999999999999995 8.4 1 1 7895
7896 2 21.0 5.3999999999999995 9.0 1 1 7896
7897 2 21.0 5.3999999999999995 9.6 1 1 7897
7898 2 21.0 5.3999999999999995 10.2 1 1 7898
7899 2 21.0 5.3999999999999995 10.799999999999999 1 1 7899
7900 2 21.0 6.0 2.4 1 1 7900
7901 2 21.0 6.0 3.0 1 1 7901
7902 2 21.0 6.0 3.5999999999999996 1 1 7902
7903 2 21.0 6.0 4.2 1 1 7903
7904 2 21.0 6.0 5.3999999999999995 1 1 7904
7905 2 21.0 6.0 6.0 1 1 7905
7906 2 21.0 6.0 6.6 1 1 7906
7907 2 21.0 6.0 7.8 1 1 7907
7908 2 21.0 6.0 8.4 1 1 7908
7909 2 21.0 6.0 9.0 1 1 7909
7910 2 21.0 6.0 9.6 1 1 7910
7911 2 21.0 6.0 10.2 1 1 7911
7912 2 21.0 6.6 2.4 1 1 7912
7913 2 21.0 6.6 3.0 1 1 7913
7914 2 21.0 6.6 3.5999999999999996 1 1 7914
7915 2 21.0 6.6 4.2 1 1 7915
7916 2 21.0 6.6 4.8 1 1 7916
7917 2 21.0 6.6 5.3999999999999995 1 1 7917
7918 2 21.0 6.6 6.0 1 1 7918
7919 2 21.0 6.6 6.6 1 1 7919
7920 2 21.0 6.6 7.199999999999999 1 1 7920
7921 2 21.0 6.6 7.8 1 1 7921
7922 2 21.0 6.6 8.4 1 1 7922
7923 2 21.0 6.6 9.6 1 1 7923
7924 2 21.0 6.6 10.2 1 1 7924
7925 2 21.0 6.6 10.799999999999999 1 1 7925
7926 2 21.0 7.199999999999999 2.4 1 1 7926
7927 2 21.0 7.199999999999999 3.0 1 1 7927
7928 2 21.0 7.199999999999999 3.5999999999999996 1 1 7928
7929 2 21.0 7.199999999999999 4.2 1 1 7929
7930 2 21.0 7.199999999999999 4.8 1 1 7930
7931 2 21.0 7.199999999999999 5.3999999999999995 1 1 7931
7932 2 21.0 7.199999999999999 6.0 1 1 7932
7933 2 21.0 7.199999999999999 6.6 1 1 7933
7934 2 21.0 7.199999999999999 7.8 1 1 7934
7935 2 21.11906490832274 7.079047919899916 8.752625502677503 1 1 7935
7936 2 21.0 7.199999999999999 10.799999999999999 1 1 7936
7937 2 21.0 7.8 2.4 1 1 7937
7938 2 21.0 7.8 3.0 1 1 7938
7939 2 21.0 7.8 3.5999999999999996 1 1 7939
7940 2 21.0 7.8 4.2 1 1 7940
7941 2 21.0 7.8 4.8 1 1 7941
7942 2 21.0 7.8 5.3999999999999995 1 1 7942
7943 2 21.11906490832274 7.679047919899917 6.952625502677498 1 1 7943
7944 2 21.0 7.8 7.8 1 1 7944
7945 2 21.0 7.8 8.4 1 1 7945
7946 2 21.0 7.8 9.0 1 1 7946
7947 2 21.0 7.8 9.6 1 1 7947
7948 2 21.0 7.8 10.2 1 1 7948
7949 2 21.0 7.8 10.799999999999999 1 1 7949
7950 2 21.0 8.4 2.4 1 1 7950
7951 2 21.0 8.4 3.0 1 1 7951
7952 2 21.0 8.4 3.5999999999999996 1 1 7952
7953 2 21.0 8.4 4.2 1 1 7953
7954 2 21.0 8.4 4.8 1 1 7954
7955 2 21.0 8.4 5.3999999999999995 1 1 7955
7956 2 21.0 8.4 6.0 1 1 7956
7957 2 21.0 8.4 6.6 1 1 7957
7958 2 21.0 8.4 7.199999999999999 1 1 7958
7959 2 21.0 8.4 7.8 1 1 7959
7960 2 21.0 8.4 8.4 1 1 7960
7961 2 21.0 8.4 9.0 1 1 7961
7962 2 21.0 8.4 9.6 1 1 7962
7963 2 21.0 8.4 10.2 1 1 7963
7964 2 21.0 8.4 10.799999999999999 1 1 7964
7965 2 21.0 9.0 3.5999999999999996 1 1 7965
7966 2 21.0 9.0 4.2 1 1 7966
7967 2 21.0 9.0 4.8 1 1 7967
7968 2 21.0 9.0 5.3999999999999995 1 1 7968
7969 2 21.0 9.0 6.0 1 1 7969
7970 2 21.0 9.0 6.6 1 1 7970
7971 2 21.0 9.0 7.199999999999999 1 1 7971
7972 2 21.0 9.0 7.8 1 1 7972
7973 2 21.0 9.0 10.2 1 1 7973
7974 2 21.0 9.6 3.5999999999999996 1 1 7974
7975 2 21.0 9.6 4.2 1 1 7975
7976 2 21.0 9.6 4.8 1 1 7976
7977 2 21.0 9.6 5.3999999999999995 1 1 7977
7978 2 21.0 9.6 6.0 1 1 7978
7979 2 21.0 9.6 6.6 1 1 7979
7980 2 21.0 9.6 7.199999999999999 1 1 7980
7981 2 21.0 9.6 7.8 1 1 7981
7982 2 21.0 9.6 8.4 1 1 7982
7983 2 21.0 9.6 9.0 1 1 7983
7984 2 21.0 9.6 9.6 1 1 7984
7985 2 21.0 9.6 10.2 1 1 7985
7986 2 21.0 10.2 3.5999999999999996 1 1 7986
7987 2 21.0 10.2 4.2 1 1 7987
7988 2 21.0 10.2 4.8 1 1 7988
7989 2 21.0 10.2 5.3999999999999995 1 1 7989
7990 2 21.0 10.2 6.0 1 1 7990
7991 2 21.0 10.2 6.6 1 1 7991
7992 2 21.0 10.2 7.8 1 1 7992
7993 2 21.0 10.2 8.4 1 1 7993
7994 2 21.0 10.2 9.0 1 1 7994
7995 2 21.0 10.2 9.6 1 1 7995
7996 2 21.0 10.799999999999999 4.8 1 1 7996
7997 2 21.0 10.799999999999999 6.0 1 1 7997
7998 2 21.11906490832274 10.679047919899912 6.952625502677498 1 1 7998
7999 2 21.0 10.799999999999999 7.8 1 1 7999
8000 2 21.0 10.799999999999999 8.4 1 1 8000




